1
0
1
0
1 1 1
356 356 66
-1.661613471429582e+19
-1.652278564286719e+19
-1.642943657143856e+19
-1.633608750000993e+19
-1.624273842858130e+19
-1.614938935715267e+19
-1.605604028572405e+19
-1.596269121429542e+19
-1.586934214286679e+19
-1.577599307143816e+19
-1.568264400000953e+19
-1.558929492858090e+19
-1.549594585715228e+19
-1.540259678572365e+19
-1.530924771429502e+19
-1.521589864286639e+19
-1.512254957143776e+19
-1.502920050000914e+19
-1.493585142858051e+19
-1.484250235715188e+19
-1.474915328572325e+19
-1.465580421429462e+19
-1.456245514286600e+19
-1.446910607143737e+19
-1.437575700000874e+19
-1.428240792858011e+19
-1.418905885715148e+19
-1.409570978572286e+19
-1.400236071429423e+19
-1.390901164286560e+19
-1.381566257143697e+19
-1.372231350000834e+19
-1.362896442857971e+19
-1.353561535715108e+19
-1.344226628572246e+19
-1.334891721429383e+19
-1.325556814286520e+19
-1.316221907143657e+19
-1.306887000000794e+19
-1.297552092857932e+19
-1.288217185715069e+19
-1.278882278572206e+19
-1.269547371429343e+19
-1.260212464286480e+19
-1.250877557143618e+19
-1.241542650000755e+19
-1.232207742857892e+19
-1.222872835715029e+19
-1.213537928572166e+19
-1.204203021429304e+19
-1.194868114286441e+19
-1.185533207143578e+19
-1.176198300000715e+19
-1.166863392857852e+19
-1.157528485714989e+19
-1.148193578572127e+19
-1.138858671429264e+19
-1.129523764286401e+19
-1.120188857143538e+19
-1.110853950000675e+19
-1.101519042857812e+19
-1.092184135714950e+19
-1.082849228572087e+19
-1.073514321429224e+19
-1.064179414286361e+19
-1.054844507143498e+19
-1.045509600000635e+19
-1.036174692857773e+19
-1.026839785714910e+19
-1.017504878572047e+19
-1.008169971429184e+19
-9.988350642863215e+18
-9.895001571434586e+18
-9.801652500005958e+18
-9.708303428577331e+18
-9.614954357148703e+18
-9.521605285720074e+18
-9.428256214291446e+18
-9.334907142862817e+18
-9.241558071434189e+18
-9.148209000005561e+18
-9.054859928576933e+18
-8.961510857148305e+18
-8.868161785719677e+18
-8.774812714291048e+18
-8.681463642862420e+18
-8.588114571433793e+18
-8.494765500005164e+18
-8.401416428576536e+18
-8.308067357147908e+18
-8.214718285719280e+18
-8.121369214290651e+18
-8.028020142862023e+18
-7.934671071433395e+18
-7.841322000004767e+18
-7.747972928576138e+18
-7.654623857147511e+18
-7.561274785718882e+18
-7.467925714290254e+18
-7.374576642861626e+18
-7.281227571432998e+18
-7.187878500004369e+18
-7.094529428575741e+18
-7.001180357147113e+18
-6.907831285718485e+18
-6.814482214289857e+18
-6.721133142861229e+18
-6.627784071432601e+18
-6.534435000003972e+18
-6.441085928575345e+18
-6.347736857146716e+18
-6.254387785718088e+18
-6.161038714289459e+18
-6.067689642860832e+18
-5.974340571432203e+18
-5.880991500003575e+18
-5.787642428574947e+18
-5.694293357146319e+18
-5.600944285717690e+18
-5.507595214289062e+18
-5.414246142860434e+18
-5.320897071431806e+18
-5.227548000003177e+18
-5.134198928574550e+18
-5.040849857145922e+18
-4.947500785717293e+18
-4.854151714288666e+18
-4.760802642860037e+18
-4.667453571431409e+18
-4.574104500002781e+18
-4.480755428574153e+18
-4.387406357145524e+18
-4.294057285716896e+18
-4.200708214288268e+18
-4.107359142859640e+18
-4.014010071431011e+18
-3.920661000002383e+18
-3.827311928573755e+18
-3.733962857145127e+18
-3.640613785716499e+18
-3.547264714287870e+18
-3.453915642859242e+18
-3.360566571430615e+18
-3.267217500001986e+18
-3.173868428573358e+18
-3.080519357144730e+18
-2.987170285716102e+18
-2.893821214287474e+18
-2.800472142858845e+18
-2.707123071430217e+18
-2.613774000001589e+18
-2.520424928572961e+18
-2.427075857144333e+18
-2.333726785715704e+18
-2.240377714287076e+18
-2.147028642858448e+18
-2.053679571429820e+18
-1.960330500001192e+18
-1.866981428572563e+18
-1.773632357143935e+18
-1.680283285715307e+18
-1.586934214286679e+18
-1.493585142858051e+18
-1.400236071429423e+18
-1.306887000000794e+18
-1.213537928572166e+18
-1.120188857143538e+18
-1.026839785714910e+18
-9.334907142862817e+17
-8.401416428576536e+17
-7.467925714290254e+17
-6.534435000003972e+17
-5.600944285717691e+17
-4.667453571431409e+17
-3.733962857145127e+17
-2.800472142858845e+17
-1.866981428572564e+17
-9.334907142862818e+16
0.000000000000000e+00
9.334907142862818e+16
1.866981428572564e+17
2.800472142858845e+17
3.733962857145127e+17
4.667453571431409e+17
5.600944285717691e+17
6.534435000003972e+17
7.467925714290254e+17
8.401416428576536e+17
9.334907142862817e+17
1.026839785714910e+18
1.120188857143538e+18
1.213537928572166e+18
1.306887000000794e+18
1.400236071429423e+18
1.493585142858051e+18
1.586934214286679e+18
1.680283285715307e+18
1.773632357143935e+18
1.866981428572563e+18
1.960330500001192e+18
2.053679571429820e+18
2.147028642858448e+18
2.240377714287076e+18
2.333726785715704e+18
2.427075857144333e+18
2.520424928572961e+18
2.613774000001589e+18
2.707123071430217e+18
2.800472142858845e+18
2.893821214287474e+18
2.987170285716102e+18
3.080519357144730e+18
3.173868428573358e+18
3.267217500001986e+18
3.360566571430615e+18
3.453915642859242e+18
3.547264714287870e+18
3.640613785716499e+18
3.733962857145127e+18
3.827311928573755e+18
3.920661000002383e+18
4.014010071431011e+18
4.107359142859640e+18
4.200708214288268e+18
4.294057285716896e+18
4.387406357145524e+18
4.480755428574153e+18
4.574104500002781e+18
4.667453571431409e+18
4.760802642860037e+18
4.854151714288666e+18
4.947500785717293e+18
5.040849857145922e+18
5.134198928574550e+18
5.227548000003177e+18
5.320897071431806e+18
5.414246142860434e+18
5.507595214289062e+18
5.600944285717690e+18
5.694293357146319e+18
5.787642428574947e+18
5.880991500003575e+18
5.974340571432203e+18
6.067689642860832e+18
6.161038714289459e+18
6.254387785718088e+18
6.347736857146716e+18
6.441085928575345e+18
6.534435000003972e+18
6.627784071432601e+18
6.721133142861229e+18
6.814482214289857e+18
6.907831285718485e+18
7.001180357147113e+18
7.094529428575741e+18
7.187878500004369e+18
7.281227571432998e+18
7.374576642861626e+18
7.467925714290254e+18
7.561274785718882e+18
7.654623857147511e+18
7.747972928576138e+18
7.841322000004767e+18
7.934671071433395e+18
8.028020142862023e+18
8.121369214290651e+18
8.214718285719280e+18
8.308067357147908e+18
8.401416428576536e+18
8.494765500005164e+18
8.588114571433793e+18
8.681463642862420e+18
8.774812714291048e+18
8.868161785719677e+18
8.961510857148305e+18
9.054859928576933e+18
9.148209000005561e+18
9.241558071434189e+18
9.334907142862817e+18
9.428256214291446e+18
9.521605285720074e+18
9.614954357148703e+18
9.708303428577331e+18
9.801652500005958e+18
9.895001571434586e+18
9.988350642863215e+18
1.008169971429184e+19
1.017504878572047e+19
1.026839785714910e+19
1.036174692857773e+19
1.045509600000635e+19
1.054844507143498e+19
1.064179414286361e+19
1.073514321429224e+19
1.082849228572087e+19
1.092184135714950e+19
1.101519042857812e+19
1.110853950000675e+19
1.120188857143538e+19
1.129523764286401e+19
1.138858671429264e+19
1.148193578572127e+19
1.157528485714989e+19
1.166863392857852e+19
1.176198300000715e+19
1.185533207143578e+19
1.194868114286441e+19
1.204203021429304e+19
1.213537928572166e+19
1.222872835715029e+19
1.232207742857892e+19
1.241542650000755e+19
1.250877557143618e+19
1.260212464286480e+19
1.269547371429343e+19
1.278882278572206e+19
1.288217185715069e+19
1.297552092857932e+19
1.306887000000794e+19
1.316221907143657e+19
1.325556814286520e+19
1.334891721429383e+19
1.344226628572246e+19
1.353561535715108e+19
1.362896442857971e+19
1.372231350000834e+19
1.381566257143697e+19
1.390901164286560e+19
1.400236071429423e+19
1.409570978572286e+19
1.418905885715148e+19
1.428240792858011e+19
1.437575700000874e+19
1.446910607143737e+19
1.456245514286600e+19
1.465580421429462e+19
1.474915328572325e+19
1.484250235715188e+19
1.493585142858051e+19
1.502920050000914e+19
1.512254957143776e+19
1.521589864286639e+19
1.530924771429502e+19
1.540259678572365e+19
1.549594585715228e+19
1.558929492858090e+19
1.568264400000953e+19
1.577599307143816e+19
1.586934214286679e+19
1.596269121429542e+19
1.605604028572405e+19
1.614938935715267e+19
1.624273842858130e+19
1.633608750000993e+19
1.642943657143856e+19
1.652278564286719e+19
1.661613471429582e+19
-1.661613471429582e+19
-1.652278564286719e+19
-1.642943657143856e+19
-1.633608750000993e+19
-1.624273842858130e+19
-1.614938935715267e+19
-1.605604028572405e+19
-1.596269121429542e+19
-1.586934214286679e+19
-1.577599307143816e+19
-1.568264400000953e+19
-1.558929492858090e+19
-1.549594585715228e+19
-1.540259678572365e+19
-1.530924771429502e+19
-1.521589864286639e+19
-1.512254957143776e+19
-1.502920050000914e+19
-1.493585142858051e+19
-1.484250235715188e+19
-1.474915328572325e+19
-1.465580421429462e+19
-1.456245514286600e+19
-1.446910607143737e+19
-1.437575700000874e+19
-1.428240792858011e+19
-1.418905885715148e+19
-1.409570978572286e+19
-1.400236071429423e+19
-1.390901164286560e+19
-1.381566257143697e+19
-1.372231350000834e+19
-1.362896442857971e+19
-1.353561535715108e+19
-1.344226628572246e+19
-1.334891721429383e+19
-1.325556814286520e+19
-1.316221907143657e+19
-1.306887000000794e+19
-1.297552092857932e+19
-1.288217185715069e+19
-1.278882278572206e+19
-1.269547371429343e+19
-1.260212464286480e+19
-1.250877557143618e+19
-1.241542650000755e+19
-1.232207742857892e+19
-1.222872835715029e+19
-1.213537928572166e+19
-1.204203021429304e+19
-1.194868114286441e+19
-1.185533207143578e+19
-1.176198300000715e+19
-1.166863392857852e+19
-1.157528485714989e+19
-1.148193578572127e+19
-1.138858671429264e+19
-1.129523764286401e+19
-1.120188857143538e+19
-1.110853950000675e+19
-1.101519042857812e+19
-1.092184135714950e+19
-1.082849228572087e+19
-1.073514321429224e+19
-1.064179414286361e+19
-1.054844507143498e+19
-1.045509600000635e+19
-1.036174692857773e+19
-1.026839785714910e+19
-1.017504878572047e+19
-1.008169971429184e+19
-9.988350642863215e+18
-9.895001571434586e+18
-9.801652500005958e+18
-9.708303428577331e+18
-9.614954357148703e+18
-9.521605285720074e+18
-9.428256214291446e+18
-9.334907142862817e+18
-9.241558071434189e+18
-9.148209000005561e+18
-9.054859928576933e+18
-8.961510857148305e+18
-8.868161785719677e+18
-8.774812714291048e+18
-8.681463642862420e+18
-8.588114571433793e+18
-8.494765500005164e+18
-8.401416428576536e+18
-8.308067357147908e+18
-8.214718285719280e+18
-8.121369214290651e+18
-8.028020142862023e+18
-7.934671071433395e+18
-7.841322000004767e+18
-7.747972928576138e+18
-7.654623857147511e+18
-7.561274785718882e+18
-7.467925714290254e+18
-7.374576642861626e+18
-7.281227571432998e+18
-7.187878500004369e+18
-7.094529428575741e+18
-7.001180357147113e+18
-6.907831285718485e+18
-6.814482214289857e+18
-6.721133142861229e+18
-6.627784071432601e+18
-6.534435000003972e+18
-6.441085928575345e+18
-6.347736857146716e+18
-6.254387785718088e+18
-6.161038714289459e+18
-6.067689642860832e+18
-5.974340571432203e+18
-5.880991500003575e+18
-5.787642428574947e+18
-5.694293357146319e+18
-5.600944285717690e+18
-5.507595214289062e+18
-5.414246142860434e+18
-5.320897071431806e+18
-5.227548000003177e+18
-5.134198928574550e+18
-5.040849857145922e+18
-4.947500785717293e+18
-4.854151714288666e+18
-4.760802642860037e+18
-4.667453571431409e+18
-4.574104500002781e+18
-4.480755428574153e+18
-4.387406357145524e+18
-4.294057285716896e+18
-4.200708214288268e+18
-4.107359142859640e+18
-4.014010071431011e+18
-3.920661000002383e+18
-3.827311928573755e+18
-3.733962857145127e+18
-3.640613785716499e+18
-3.547264714287870e+18
-3.453915642859242e+18
-3.360566571430615e+18
-3.267217500001986e+18
-3.173868428573358e+18
-3.080519357144730e+18
-2.987170285716102e+18
-2.893821214287474e+18
-2.800472142858845e+18
-2.707123071430217e+18
-2.613774000001589e+18
-2.520424928572961e+18
-2.427075857144333e+18
-2.333726785715704e+18
-2.240377714287076e+18
-2.147028642858448e+18
-2.053679571429820e+18
-1.960330500001192e+18
-1.866981428572563e+18
-1.773632357143935e+18
-1.680283285715307e+18
-1.586934214286679e+18
-1.493585142858051e+18
-1.400236071429423e+18
-1.306887000000794e+18
-1.213537928572166e+18
-1.120188857143538e+18
-1.026839785714910e+18
-9.334907142862817e+17
-8.401416428576536e+17
-7.467925714290254e+17
-6.534435000003972e+17
-5.600944285717691e+17
-4.667453571431409e+17
-3.733962857145127e+17
-2.800472142858845e+17
-1.866981428572564e+17
-9.334907142862818e+16
0.000000000000000e+00
9.334907142862818e+16
1.866981428572564e+17
2.800472142858845e+17
3.733962857145127e+17
4.667453571431409e+17
5.600944285717691e+17
6.534435000003972e+17
7.467925714290254e+17
8.401416428576536e+17
9.334907142862817e+17
1.026839785714910e+18
1.120188857143538e+18
1.213537928572166e+18
1.306887000000794e+18
1.400236071429423e+18
1.493585142858051e+18
1.586934214286679e+18
1.680283285715307e+18
1.773632357143935e+18
1.866981428572563e+18
1.960330500001192e+18
2.053679571429820e+18
2.147028642858448e+18
2.240377714287076e+18
2.333726785715704e+18
2.427075857144333e+18
2.520424928572961e+18
2.613774000001589e+18
2.707123071430217e+18
2.800472142858845e+18
2.893821214287474e+18
2.987170285716102e+18
3.080519357144730e+18
3.173868428573358e+18
3.267217500001986e+18
3.360566571430615e+18
3.453915642859242e+18
3.547264714287870e+18
3.640613785716499e+18
3.733962857145127e+18
3.827311928573755e+18
3.920661000002383e+18
4.014010071431011e+18
4.107359142859640e+18
4.200708214288268e+18
4.294057285716896e+18
4.387406357145524e+18
4.480755428574153e+18
4.574104500002781e+18
4.667453571431409e+18
4.760802642860037e+18
4.854151714288666e+18
4.947500785717293e+18
5.040849857145922e+18
5.134198928574550e+18
5.227548000003177e+18
5.320897071431806e+18
5.414246142860434e+18
5.507595214289062e+18
5.600944285717690e+18
5.694293357146319e+18
5.787642428574947e+18
5.880991500003575e+18
5.974340571432203e+18
6.067689642860832e+18
6.161038714289459e+18
6.254387785718088e+18
6.347736857146716e+18
6.441085928575345e+18
6.534435000003972e+18
6.627784071432601e+18
6.721133142861229e+18
6.814482214289857e+18
6.907831285718485e+18
7.001180357147113e+18
7.094529428575741e+18
7.187878500004369e+18
7.281227571432998e+18
7.374576642861626e+18
7.467925714290254e+18
7.561274785718882e+18
7.654623857147511e+18
7.747972928576138e+18
7.841322000004767e+18
7.934671071433395e+18
8.028020142862023e+18
8.121369214290651e+18
8.214718285719280e+18
8.308067357147908e+18
8.401416428576536e+18
8.494765500005164e+18
8.588114571433793e+18
8.681463642862420e+18
8.774812714291048e+18
8.868161785719677e+18
8.961510857148305e+18
9.054859928576933e+18
9.148209000005561e+18
9.241558071434189e+18
9.334907142862817e+18
9.428256214291446e+18
9.521605285720074e+18
9.614954357148703e+18
9.708303428577331e+18
9.801652500005958e+18
9.895001571434586e+18
9.988350642863215e+18
1.008169971429184e+19
1.017504878572047e+19
1.026839785714910e+19
1.036174692857773e+19
1.045509600000635e+19
1.054844507143498e+19
1.064179414286361e+19
1.073514321429224e+19
1.082849228572087e+19
1.092184135714950e+19
1.101519042857812e+19
1.110853950000675e+19
1.120188857143538e+19
1.129523764286401e+19
1.138858671429264e+19
1.148193578572127e+19
1.157528485714989e+19
1.166863392857852e+19
1.176198300000715e+19
1.185533207143578e+19
1.194868114286441e+19
1.204203021429304e+19
1.213537928572166e+19
1.222872835715029e+19
1.232207742857892e+19
1.241542650000755e+19
1.250877557143618e+19
1.260212464286480e+19
1.269547371429343e+19
1.278882278572206e+19
1.288217185715069e+19
1.297552092857932e+19
1.306887000000794e+19
1.316221907143657e+19
1.325556814286520e+19
1.334891721429383e+19
1.344226628572246e+19
1.353561535715108e+19
1.362896442857971e+19
1.372231350000834e+19
1.381566257143697e+19
1.390901164286560e+19
1.400236071429423e+19
1.409570978572286e+19
1.418905885715148e+19
1.428240792858011e+19
1.437575700000874e+19
1.446910607143737e+19
1.456245514286600e+19
1.465580421429462e+19
1.474915328572325e+19
1.484250235715188e+19
1.493585142858051e+19
1.502920050000914e+19
1.512254957143776e+19
1.521589864286639e+19
1.530924771429502e+19
1.540259678572365e+19
1.549594585715228e+19
1.558929492858090e+19
1.568264400000953e+19
1.577599307143816e+19
1.586934214286679e+19
1.596269121429542e+19
1.605604028572405e+19
1.614938935715267e+19
1.624273842858130e+19
1.633608750000993e+19
1.642943657143856e+19
1.652278564286719e+19
1.661613471429582e+19
-3.080519357144730e+18
-2.987170285716102e+18
-2.893821214287474e+18
-2.800472142858845e+18
-2.707123071430217e+18
-2.613774000001589e+18
-2.520424928572961e+18
-2.427075857144333e+18
-2.333726785715704e+18
-2.240377714287076e+18
-2.147028642858448e+18
-2.053679571429820e+18
-1.960330500001192e+18
-1.866981428572563e+18
-1.773632357143935e+18
-1.680283285715307e+18
-1.586934214286679e+18
-1.493585142858051e+18
-1.400236071429423e+18
-1.306887000000794e+18
-1.213537928572166e+18
-1.120188857143538e+18
-1.026839785714910e+18
-9.334907142862817e+17
-8.401416428576536e+17
-7.467925714290254e+17
-6.534435000003972e+17
-5.600944285717691e+17
-4.667453571431409e+17
-3.733962857145127e+17
-2.800472142858845e+17
-1.866981428572564e+17
-9.334907142862818e+16
0.000000000000000e+00
9.334907142862818e+16
1.866981428572564e+17
2.800472142858845e+17
3.733962857145127e+17
4.667453571431409e+17
5.600944285717691e+17
6.534435000003972e+17
7.467925714290254e+17
8.401416428576536e+17
9.334907142862817e+17
1.026839785714910e+18
1.120188857143538e+18
1.213537928572166e+18
1.306887000000794e+18
1.400236071429423e+18
1.493585142858051e+18
1.586934214286679e+18
1.680283285715307e+18
1.773632357143935e+18
1.866981428572563e+18
1.960330500001192e+18
2.053679571429820e+18
2.147028642858448e+18
2.240377714287076e+18
2.333726785715704e+18
2.427075857144333e+18
2.520424928572961e+18
2.613774000001589e+18
2.707123071430217e+18
2.800472142858845e+18
2.893821214287474e+18
2.987170285716102e+18
3.080519357144730e+18
