1
0
1
0
1 1 1
712 712 132
-1.661613471429582e+19
-1.656946017858150e+19
-1.652278564286719e+19
-1.647611110715287e+19
-1.642943657143856e+19
-1.638276203572424e+19
-1.633608750000993e+19
-1.628941296429562e+19
-1.624273842858130e+19
-1.619606389286699e+19
-1.614938935715267e+19
-1.610271482143836e+19
-1.605604028572405e+19
-1.600936575000973e+19
-1.596269121429542e+19
-1.591601667858110e+19
-1.586934214286679e+19
-1.582266760715248e+19
-1.577599307143816e+19
-1.572931853572385e+19
-1.568264400000953e+19
-1.563596946429522e+19
-1.558929492858090e+19
-1.554262039286659e+19
-1.549594585715228e+19
-1.544927132143796e+19
-1.540259678572365e+19
-1.535592225000934e+19
-1.530924771429502e+19
-1.526257317858071e+19
-1.521589864286639e+19
-1.516922410715208e+19
-1.512254957143776e+19
-1.507587503572345e+19
-1.502920050000914e+19
-1.498252596429482e+19
-1.493585142858051e+19
-1.488917689286619e+19
-1.484250235715188e+19
-1.479582782143756e+19
-1.474915328572325e+19
-1.470247875000894e+19
-1.465580421429462e+19
-1.460912967858031e+19
-1.456245514286600e+19
-1.451578060715168e+19
-1.446910607143737e+19
-1.442243153572305e+19
-1.437575700000874e+19
-1.432908246429442e+19
-1.428240792858011e+19
-1.423573339286580e+19
-1.418905885715148e+19
-1.414238432143717e+19
-1.409570978572286e+19
-1.404903525000854e+19
-1.400236071429423e+19
-1.395568617857991e+19
-1.390901164286560e+19
-1.386233710715128e+19
-1.381566257143697e+19
-1.376898803572266e+19
-1.372231350000834e+19
-1.367563896429403e+19
-1.362896442857971e+19
-1.358228989286540e+19
-1.353561535715108e+19
-1.348894082143677e+19
-1.344226628572246e+19
-1.339559175000814e+19
-1.334891721429383e+19
-1.330224267857952e+19
-1.325556814286520e+19
-1.320889360715089e+19
-1.316221907143657e+19
-1.311554453572226e+19
-1.306887000000794e+19
-1.302219546429363e+19
-1.297552092857932e+19
-1.292884639286500e+19
-1.288217185715069e+19
-1.283549732143638e+19
-1.278882278572206e+19
-1.274214825000775e+19
-1.269547371429343e+19
-1.264879917857912e+19
-1.260212464286480e+19
-1.255545010715049e+19
-1.250877557143618e+19
-1.246210103572186e+19
-1.241542650000755e+19
-1.236875196429323e+19
-1.232207742857892e+19
-1.227540289286460e+19
-1.222872835715029e+19
-1.218205382143598e+19
-1.213537928572166e+19
-1.208870475000735e+19
-1.204203021429304e+19
-1.199535567857872e+19
-1.194868114286441e+19
-1.190200660715009e+19
-1.185533207143578e+19
-1.180865753572146e+19
-1.176198300000715e+19
-1.171530846429284e+19
-1.166863392857852e+19
-1.162195939286421e+19
-1.157528485714989e+19
-1.152861032143558e+19
-1.148193578572127e+19
-1.143526125000695e+19
-1.138858671429264e+19
-1.134191217857832e+19
-1.129523764286401e+19
-1.124856310714969e+19
-1.120188857143538e+19
-1.115521403572107e+19
-1.110853950000675e+19
-1.106186496429244e+19
-1.101519042857812e+19
-1.096851589286381e+19
-1.092184135714950e+19
-1.087516682143518e+19
-1.082849228572087e+19
-1.078181775000655e+19
-1.073514321429224e+19
-1.068846867857793e+19
-1.064179414286361e+19
-1.059511960714930e+19
-1.054844507143498e+19
-1.050177053572067e+19
-1.045509600000635e+19
-1.040842146429204e+19
-1.036174692857773e+19
-1.031507239286341e+19
-1.026839785714910e+19
-1.022172332143479e+19
-1.017504878572047e+19
-1.012837425000616e+19
-1.008169971429184e+19
-1.003502517857753e+19
-9.988350642863215e+18
-9.941676107148900e+18
-9.895001571434586e+18
-9.848327035720272e+18
-9.801652500005958e+18
-9.754977964291643e+18
-9.708303428577331e+18
-9.661628892863017e+18
-9.614954357148703e+18
-9.568279821434388e+18
-9.521605285720074e+18
-9.474930750005760e+18
-9.428256214291446e+18
-9.381581678577132e+18
-9.334907142862817e+18
-9.288232607148503e+18
-9.241558071434189e+18
-9.194883535719876e+18
-9.148209000005561e+18
-9.101534464291247e+18
-9.054859928576933e+18
-9.008185392862619e+18
-8.961510857148305e+18
-8.914836321433991e+18
-8.868161785719677e+18
-8.821487250005363e+18
-8.774812714291048e+18
-8.728138178576734e+18
-8.681463642862420e+18
-8.634789107148107e+18
-8.588114571433793e+18
-8.541440035719478e+18
-8.494765500005164e+18
-8.448090964290850e+18
-8.401416428576536e+18
-8.354741892862221e+18
-8.308067357147908e+18
-8.261392821433594e+18
-8.214718285719280e+18
-8.168043750004965e+18
-8.121369214290651e+18
-8.074694678576337e+18
-8.028020142862023e+18
-7.981345607147709e+18
-7.934671071433395e+18
-7.887996535719081e+18
-7.841322000004767e+18
-7.794647464290452e+18
-7.747972928576138e+18
-7.701298392861825e+18
-7.654623857147511e+18
-7.607949321433197e+18
-7.561274785718882e+18
-7.514600250004568e+18
-7.467925714290254e+18
-7.421251178575940e+18
-7.374576642861626e+18
-7.327902107147312e+18
-7.281227571432998e+18
-7.234553035718684e+18
-7.187878500004369e+18
-7.141203964290055e+18
-7.094529428575741e+18
-7.047854892861428e+18
-7.001180357147113e+18
-6.954505821432799e+18
-6.907831285718485e+18
-6.861156750004171e+18
-6.814482214289857e+18
-6.767807678575542e+18
-6.721133142861229e+18
-6.674458607146915e+18
-6.627784071432601e+18
-6.581109535718286e+18
-6.534435000003972e+18
-6.487760464289658e+18
-6.441085928575345e+18
-6.394411392861030e+18
-6.347736857146716e+18
-6.301062321432402e+18
-6.254387785718088e+18
-6.207713250003773e+18
-6.161038714289459e+18
-6.114364178575146e+18
-6.067689642860832e+18
-6.021015107146518e+18
-5.974340571432203e+18
-5.927666035717889e+18
-5.880991500003575e+18
-5.834316964289261e+18
-5.787642428574947e+18
-5.740967892860633e+18
-5.694293357146319e+18
-5.647618821432005e+18
-5.600944285717690e+18
-5.554269750003376e+18
-5.507595214289062e+18
-5.460920678574749e+18
-5.414246142860434e+18
-5.367571607146120e+18
-5.320897071431806e+18
-5.274222535717492e+18
-5.227548000003177e+18
-5.180873464288864e+18
-5.134198928574550e+18
-5.087524392860236e+18
-5.040849857145922e+18
-4.994175321431607e+18
-4.947500785717293e+18
-4.900826250002979e+18
-4.854151714288666e+18
-4.807477178574351e+18
-4.760802642860037e+18
-4.714128107145723e+18
-4.667453571431409e+18
-4.620779035717094e+18
-4.574104500002781e+18
-4.527429964288466e+18
-4.480755428574153e+18
-4.434080892859838e+18
-4.387406357145524e+18
-4.340731821431210e+18
-4.294057285716896e+18
-4.247382750002582e+18
-4.200708214288268e+18
-4.154033678573954e+18
-4.107359142859640e+18
-4.060684607145326e+18
-4.014010071431011e+18
-3.967335535716698e+18
-3.920661000002383e+18
-3.873986464288069e+18
-3.827311928573755e+18
-3.780637392859441e+18
-3.733962857145127e+18
-3.687288321430813e+18
-3.640613785716499e+18
-3.593939250002185e+18
-3.547264714287870e+18
-3.500590178573557e+18
-3.453915642859242e+18
-3.407241107144928e+18
-3.360566571430615e+18
-3.313892035716300e+18
-3.267217500001986e+18
-3.220542964287672e+18
-3.173868428573358e+18
-3.127193892859044e+18
-3.080519357144730e+18
-3.033844821430416e+18
-2.987170285716102e+18
-2.940495750001787e+18
-2.893821214287474e+18
-2.847146678573159e+18
-2.800472142858845e+18
-2.753797607144531e+18
-2.707123071430217e+18
-2.660448535715903e+18
-2.613774000001589e+18
-2.567099464287275e+18
-2.520424928572961e+18
-2.473750392858647e+18
-2.427075857144333e+18
-2.380401321430019e+18
-2.333726785715704e+18
-2.287052250001390e+18
-2.240377714287076e+18
-2.193703178572762e+18
-2.147028642858448e+18
-2.100354107144134e+18
-2.053679571429820e+18
-2.007005035715506e+18
-1.960330500001192e+18
-1.913655964286878e+18
-1.866981428572563e+18
-1.820306892858249e+18
-1.773632357143935e+18
-1.726957821429621e+18
-1.680283285715307e+18
-1.633608750000993e+18
-1.586934214286679e+18
-1.540259678572365e+18
-1.493585142858051e+18
-1.446910607143737e+18
-1.400236071429423e+18
-1.353561535715109e+18
-1.306887000000794e+18
-1.260212464286480e+18
-1.213537928572166e+18
-1.166863392857852e+18
-1.120188857143538e+18
-1.073514321429224e+18
-1.026839785714910e+18
-9.801652500005958e+17
-9.334907142862817e+17
-8.868161785719676e+17
-8.401416428576536e+17
-7.934671071433395e+17
-7.467925714290254e+17
-7.001180357147113e+17
-6.534435000003972e+17
-6.067689642860832e+17
-5.600944285717691e+17
-5.134198928574550e+17
-4.667453571431409e+17
-4.200708214288268e+17
-3.733962857145127e+17
-3.267217500001986e+17
-2.800472142858845e+17
-2.333726785715704e+17
-1.866981428572564e+17
-1.400236071429423e+17
-9.334907142862818e+16
-4.667453571431409e+16
0.000000000000000e+00
4.667453571431409e+16
9.334907142862818e+16
1.400236071429423e+17
1.866981428572564e+17
2.333726785715704e+17
2.800472142858845e+17
3.267217500001986e+17
3.733962857145127e+17
4.200708214288268e+17
4.667453571431409e+17
5.134198928574550e+17
5.600944285717691e+17
6.067689642860832e+17
6.534435000003972e+17
7.001180357147113e+17
7.467925714290254e+17
7.934671071433395e+17
8.401416428576536e+17
8.868161785719676e+17
9.334907142862817e+17
9.801652500005958e+17
1.026839785714910e+18
1.073514321429224e+18
1.120188857143538e+18
1.166863392857852e+18
1.213537928572166e+18
1.260212464286480e+18
1.306887000000794e+18
1.353561535715109e+18
1.400236071429423e+18
1.446910607143737e+18
1.493585142858051e+18
1.540259678572365e+18
1.586934214286679e+18
1.633608750000993e+18
1.680283285715307e+18
1.726957821429621e+18
1.773632357143935e+18
1.820306892858249e+18
1.866981428572563e+18
1.913655964286878e+18
1.960330500001192e+18
2.007005035715506e+18
2.053679571429820e+18
2.100354107144134e+18
2.147028642858448e+18
2.193703178572762e+18
2.240377714287076e+18
2.287052250001390e+18
2.333726785715704e+18
2.380401321430019e+18
2.427075857144333e+18
2.473750392858647e+18
2.520424928572961e+18
2.567099464287275e+18
2.613774000001589e+18
2.660448535715903e+18
2.707123071430217e+18
2.753797607144531e+18
2.800472142858845e+18
2.847146678573159e+18
2.893821214287474e+18
2.940495750001787e+18
2.987170285716102e+18
3.033844821430416e+18
3.080519357144730e+18
3.127193892859044e+18
3.173868428573358e+18
3.220542964287672e+18
3.267217500001986e+18
3.313892035716300e+18
3.360566571430615e+18
3.407241107144928e+18
3.453915642859242e+18
3.500590178573557e+18
3.547264714287870e+18
3.593939250002185e+18
3.640613785716499e+18
3.687288321430813e+18
3.733962857145127e+18
3.780637392859441e+18
3.827311928573755e+18
3.873986464288069e+18
3.920661000002383e+18
3.967335535716698e+18
4.014010071431011e+18
4.060684607145326e+18
4.107359142859640e+18
4.154033678573954e+18
4.200708214288268e+18
4.247382750002582e+18
4.294057285716896e+18
4.340731821431210e+18
4.387406357145524e+18
4.434080892859838e+18
4.480755428574153e+18
4.527429964288466e+18
4.574104500002781e+18
4.620779035717094e+18
4.667453571431409e+18
4.714128107145723e+18
4.760802642860037e+18
4.807477178574351e+18
4.854151714288666e+18
4.900826250002979e+18
4.947500785717293e+18
4.994175321431607e+18
5.040849857145922e+18
5.087524392860236e+18
5.134198928574550e+18
5.180873464288864e+18
5.227548000003177e+18
5.274222535717492e+18
5.320897071431806e+18
5.367571607146120e+18
5.414246142860434e+18
5.460920678574749e+18
5.507595214289062e+18
5.554269750003376e+18
5.600944285717690e+18
5.647618821432005e+18
5.694293357146319e+18
5.740967892860633e+18
5.787642428574947e+18
5.834316964289261e+18
5.880991500003575e+18
5.927666035717889e+18
5.974340571432203e+18
6.021015107146518e+18
6.067689642860832e+18
6.114364178575146e+18
6.161038714289459e+18
6.207713250003773e+18
6.254387785718088e+18
6.301062321432402e+18
6.347736857146716e+18
6.394411392861030e+18
6.441085928575345e+18
6.487760464289658e+18
6.534435000003972e+18
6.581109535718286e+18
6.627784071432601e+18
6.674458607146915e+18
6.721133142861229e+18
6.767807678575542e+18
6.814482214289857e+18
6.861156750004171e+18
6.907831285718485e+18
6.954505821432799e+18
7.001180357147113e+18
7.047854892861428e+18
7.094529428575741e+18
7.141203964290055e+18
7.187878500004369e+18
7.234553035718684e+18
7.281227571432998e+18
7.327902107147312e+18
7.374576642861626e+18
7.421251178575940e+18
7.467925714290254e+18
7.514600250004568e+18
7.561274785718882e+18
7.607949321433197e+18
7.654623857147511e+18
7.701298392861825e+18
7.747972928576138e+18
7.794647464290452e+18
7.841322000004767e+18
7.887996535719081e+18
7.934671071433395e+18
7.981345607147709e+18
8.028020142862023e+18
8.074694678576337e+18
8.121369214290651e+18
8.168043750004965e+18
8.214718285719280e+18
8.261392821433594e+18
8.308067357147908e+18
8.354741892862221e+18
8.401416428576536e+18
8.448090964290850e+18
8.494765500005164e+18
8.541440035719478e+18
8.588114571433793e+18
8.634789107148107e+18
8.681463642862420e+18
8.728138178576734e+18
8.774812714291048e+18
8.821487250005363e+18
8.868161785719677e+18
8.914836321433991e+18
8.961510857148305e+18
9.008185392862619e+18
9.054859928576933e+18
9.101534464291247e+18
9.148209000005561e+18
9.194883535719876e+18
9.241558071434189e+18
9.288232607148503e+18
9.334907142862817e+18
9.381581678577132e+18
9.428256214291446e+18
9.474930750005760e+18
9.521605285720074e+18
9.568279821434388e+18
9.614954357148703e+18
9.661628892863017e+18
9.708303428577331e+18
9.754977964291643e+18
9.801652500005958e+18
9.848327035720272e+18
9.895001571434586e+18
9.941676107148900e+18
9.988350642863215e+18
1.003502517857753e+19
1.008169971429184e+19
1.012837425000616e+19
1.017504878572047e+19
1.022172332143479e+19
1.026839785714910e+19
1.031507239286341e+19
1.036174692857773e+19
1.040842146429204e+19
1.045509600000635e+19
1.050177053572067e+19
1.054844507143498e+19
1.059511960714930e+19
1.064179414286361e+19
1.068846867857793e+19
1.073514321429224e+19
1.078181775000655e+19
1.082849228572087e+19
1.087516682143518e+19
1.092184135714950e+19
1.096851589286381e+19
1.101519042857812e+19
1.106186496429244e+19
1.110853950000675e+19
1.115521403572107e+19
1.120188857143538e+19
1.124856310714969e+19
1.129523764286401e+19
1.134191217857832e+19
1.138858671429264e+19
1.143526125000695e+19
1.148193578572127e+19
1.152861032143558e+19
1.157528485714989e+19
1.162195939286421e+19
1.166863392857852e+19
1.171530846429284e+19
1.176198300000715e+19
1.180865753572146e+19
1.185533207143578e+19
1.190200660715009e+19
1.194868114286441e+19
1.199535567857872e+19
1.204203021429304e+19
1.208870475000735e+19
1.213537928572166e+19
1.218205382143598e+19
1.222872835715029e+19
1.227540289286460e+19
1.232207742857892e+19
1.236875196429323e+19
1.241542650000755e+19
1.246210103572186e+19
1.250877557143618e+19
1.255545010715049e+19
1.260212464286480e+19
1.264879917857912e+19
1.269547371429343e+19
1.274214825000775e+19
1.278882278572206e+19
1.283549732143638e+19
1.288217185715069e+19
1.292884639286500e+19
1.297552092857932e+19
1.302219546429363e+19
1.306887000000794e+19
1.311554453572226e+19
1.316221907143657e+19
1.320889360715089e+19
1.325556814286520e+19
1.330224267857952e+19
1.334891721429383e+19
1.339559175000814e+19
1.344226628572246e+19
1.348894082143677e+19
1.353561535715108e+19
1.358228989286540e+19
1.362896442857971e+19
1.367563896429403e+19
1.372231350000834e+19
1.376898803572266e+19
1.381566257143697e+19
1.386233710715128e+19
1.390901164286560e+19
1.395568617857991e+19
1.400236071429423e+19
1.404903525000854e+19
1.409570978572286e+19
1.414238432143717e+19
1.418905885715148e+19
1.423573339286580e+19
1.428240792858011e+19
1.432908246429442e+19
1.437575700000874e+19
1.442243153572305e+19
1.446910607143737e+19
1.451578060715168e+19
1.456245514286600e+19
1.460912967858031e+19
1.465580421429462e+19
1.470247875000894e+19
1.474915328572325e+19
1.479582782143756e+19
1.484250235715188e+19
1.488917689286619e+19
1.493585142858051e+19
1.498252596429482e+19
1.502920050000914e+19
1.507587503572345e+19
1.512254957143776e+19
1.516922410715208e+19
1.521589864286639e+19
1.526257317858071e+19
1.530924771429502e+19
1.535592225000934e+19
1.540259678572365e+19
1.544927132143796e+19
1.549594585715228e+19
1.554262039286659e+19
1.558929492858090e+19
1.563596946429522e+19
1.568264400000953e+19
1.572931853572385e+19
1.577599307143816e+19
1.582266760715248e+19
1.586934214286679e+19
1.591601667858110e+19
1.596269121429542e+19
1.600936575000973e+19
1.605604028572405e+19
1.610271482143836e+19
1.614938935715267e+19
1.619606389286699e+19
1.624273842858130e+19
1.628941296429562e+19
1.633608750000993e+19
1.638276203572424e+19
1.642943657143856e+19
1.647611110715287e+19
1.652278564286719e+19
1.656946017858150e+19
1.661613471429582e+19
-1.661613471429582e+19
-1.656946017858150e+19
-1.652278564286719e+19
-1.647611110715287e+19
-1.642943657143856e+19
-1.638276203572424e+19
-1.633608750000993e+19
-1.628941296429562e+19
-1.624273842858130e+19
-1.619606389286699e+19
-1.614938935715267e+19
-1.610271482143836e+19
-1.605604028572405e+19
-1.600936575000973e+19
-1.596269121429542e+19
-1.591601667858110e+19
-1.586934214286679e+19
-1.582266760715248e+19
-1.577599307143816e+19
-1.572931853572385e+19
-1.568264400000953e+19
-1.563596946429522e+19
-1.558929492858090e+19
-1.554262039286659e+19
-1.549594585715228e+19
-1.544927132143796e+19
-1.540259678572365e+19
-1.535592225000934e+19
-1.530924771429502e+19
-1.526257317858071e+19
-1.521589864286639e+19
-1.516922410715208e+19
-1.512254957143776e+19
-1.507587503572345e+19
-1.502920050000914e+19
-1.498252596429482e+19
-1.493585142858051e+19
-1.488917689286619e+19
-1.484250235715188e+19
-1.479582782143756e+19
-1.474915328572325e+19
-1.470247875000894e+19
-1.465580421429462e+19
-1.460912967858031e+19
-1.456245514286600e+19
-1.451578060715168e+19
-1.446910607143737e+19
-1.442243153572305e+19
-1.437575700000874e+19
-1.432908246429442e+19
-1.428240792858011e+19
-1.423573339286580e+19
-1.418905885715148e+19
-1.414238432143717e+19
-1.409570978572286e+19
-1.404903525000854e+19
-1.400236071429423e+19
-1.395568617857991e+19
-1.390901164286560e+19
-1.386233710715128e+19
-1.381566257143697e+19
-1.376898803572266e+19
-1.372231350000834e+19
-1.367563896429403e+19
-1.362896442857971e+19
-1.358228989286540e+19
-1.353561535715108e+19
-1.348894082143677e+19
-1.344226628572246e+19
-1.339559175000814e+19
-1.334891721429383e+19
-1.330224267857952e+19
-1.325556814286520e+19
-1.320889360715089e+19
-1.316221907143657e+19
-1.311554453572226e+19
-1.306887000000794e+19
-1.302219546429363e+19
-1.297552092857932e+19
-1.292884639286500e+19
-1.288217185715069e+19
-1.283549732143638e+19
-1.278882278572206e+19
-1.274214825000775e+19
-1.269547371429343e+19
-1.264879917857912e+19
-1.260212464286480e+19
-1.255545010715049e+19
-1.250877557143618e+19
-1.246210103572186e+19
-1.241542650000755e+19
-1.236875196429323e+19
-1.232207742857892e+19
-1.227540289286460e+19
-1.222872835715029e+19
-1.218205382143598e+19
-1.213537928572166e+19
-1.208870475000735e+19
-1.204203021429304e+19
-1.199535567857872e+19
-1.194868114286441e+19
-1.190200660715009e+19
-1.185533207143578e+19
-1.180865753572146e+19
-1.176198300000715e+19
-1.171530846429284e+19
-1.166863392857852e+19
-1.162195939286421e+19
-1.157528485714989e+19
-1.152861032143558e+19
-1.148193578572127e+19
-1.143526125000695e+19
-1.138858671429264e+19
-1.134191217857832e+19
-1.129523764286401e+19
-1.124856310714969e+19
-1.120188857143538e+19
-1.115521403572107e+19
-1.110853950000675e+19
-1.106186496429244e+19
-1.101519042857812e+19
-1.096851589286381e+19
-1.092184135714950e+19
-1.087516682143518e+19
-1.082849228572087e+19
-1.078181775000655e+19
-1.073514321429224e+19
-1.068846867857793e+19
-1.064179414286361e+19
-1.059511960714930e+19
-1.054844507143498e+19
-1.050177053572067e+19
-1.045509600000635e+19
-1.040842146429204e+19
-1.036174692857773e+19
-1.031507239286341e+19
-1.026839785714910e+19
-1.022172332143479e+19
-1.017504878572047e+19
-1.012837425000616e+19
-1.008169971429184e+19
-1.003502517857753e+19
-9.988350642863215e+18
-9.941676107148900e+18
-9.895001571434586e+18
-9.848327035720272e+18
-9.801652500005958e+18
-9.754977964291643e+18
-9.708303428577331e+18
-9.661628892863017e+18
-9.614954357148703e+18
-9.568279821434388e+18
-9.521605285720074e+18
-9.474930750005760e+18
-9.428256214291446e+18
-9.381581678577132e+18
-9.334907142862817e+18
-9.288232607148503e+18
-9.241558071434189e+18
-9.194883535719876e+18
-9.148209000005561e+18
-9.101534464291247e+18
-9.054859928576933e+18
-9.008185392862619e+18
-8.961510857148305e+18
-8.914836321433991e+18
-8.868161785719677e+18
-8.821487250005363e+18
-8.774812714291048e+18
-8.728138178576734e+18
-8.681463642862420e+18
-8.634789107148107e+18
-8.588114571433793e+18
-8.541440035719478e+18
-8.494765500005164e+18
-8.448090964290850e+18
-8.401416428576536e+18
-8.354741892862221e+18
-8.308067357147908e+18
-8.261392821433594e+18
-8.214718285719280e+18
-8.168043750004965e+18
-8.121369214290651e+18
-8.074694678576337e+18
-8.028020142862023e+18
-7.981345607147709e+18
-7.934671071433395e+18
-7.887996535719081e+18
-7.841322000004767e+18
-7.794647464290452e+18
-7.747972928576138e+18
-7.701298392861825e+18
-7.654623857147511e+18
-7.607949321433197e+18
-7.561274785718882e+18
-7.514600250004568e+18
-7.467925714290254e+18
-7.421251178575940e+18
-7.374576642861626e+18
-7.327902107147312e+18
-7.281227571432998e+18
-7.234553035718684e+18
-7.187878500004369e+18
-7.141203964290055e+18
-7.094529428575741e+18
-7.047854892861428e+18
-7.001180357147113e+18
-6.954505821432799e+18
-6.907831285718485e+18
-6.861156750004171e+18
-6.814482214289857e+18
-6.767807678575542e+18
-6.721133142861229e+18
-6.674458607146915e+18
-6.627784071432601e+18
-6.581109535718286e+18
-6.534435000003972e+18
-6.487760464289658e+18
-6.441085928575345e+18
-6.394411392861030e+18
-6.347736857146716e+18
-6.301062321432402e+18
-6.254387785718088e+18
-6.207713250003773e+18
-6.161038714289459e+18
-6.114364178575146e+18
-6.067689642860832e+18
-6.021015107146518e+18
-5.974340571432203e+18
-5.927666035717889e+18
-5.880991500003575e+18
-5.834316964289261e+18
-5.787642428574947e+18
-5.740967892860633e+18
-5.694293357146319e+18
-5.647618821432005e+18
-5.600944285717690e+18
-5.554269750003376e+18
-5.507595214289062e+18
-5.460920678574749e+18
-5.414246142860434e+18
-5.367571607146120e+18
-5.320897071431806e+18
-5.274222535717492e+18
-5.227548000003177e+18
-5.180873464288864e+18
-5.134198928574550e+18
-5.087524392860236e+18
-5.040849857145922e+18
-4.994175321431607e+18
-4.947500785717293e+18
-4.900826250002979e+18
-4.854151714288666e+18
-4.807477178574351e+18
-4.760802642860037e+18
-4.714128107145723e+18
-4.667453571431409e+18
-4.620779035717094e+18
-4.574104500002781e+18
-4.527429964288466e+18
-4.480755428574153e+18
-4.434080892859838e+18
-4.387406357145524e+18
-4.340731821431210e+18
-4.294057285716896e+18
-4.247382750002582e+18
-4.200708214288268e+18
-4.154033678573954e+18
-4.107359142859640e+18
-4.060684607145326e+18
-4.014010071431011e+18
-3.967335535716698e+18
-3.920661000002383e+18
-3.873986464288069e+18
-3.827311928573755e+18
-3.780637392859441e+18
-3.733962857145127e+18
-3.687288321430813e+18
-3.640613785716499e+18
-3.593939250002185e+18
-3.547264714287870e+18
-3.500590178573557e+18
-3.453915642859242e+18
-3.407241107144928e+18
-3.360566571430615e+18
-3.313892035716300e+18
-3.267217500001986e+18
-3.220542964287672e+18
-3.173868428573358e+18
-3.127193892859044e+18
-3.080519357144730e+18
-3.033844821430416e+18
-2.987170285716102e+18
-2.940495750001787e+18
-2.893821214287474e+18
-2.847146678573159e+18
-2.800472142858845e+18
-2.753797607144531e+18
-2.707123071430217e+18
-2.660448535715903e+18
-2.613774000001589e+18
-2.567099464287275e+18
-2.520424928572961e+18
-2.473750392858647e+18
-2.427075857144333e+18
-2.380401321430019e+18
-2.333726785715704e+18
-2.287052250001390e+18
-2.240377714287076e+18
-2.193703178572762e+18
-2.147028642858448e+18
-2.100354107144134e+18
-2.053679571429820e+18
-2.007005035715506e+18
-1.960330500001192e+18
-1.913655964286878e+18
-1.866981428572563e+18
-1.820306892858249e+18
-1.773632357143935e+18
-1.726957821429621e+18
-1.680283285715307e+18
-1.633608750000993e+18
-1.586934214286679e+18
-1.540259678572365e+18
-1.493585142858051e+18
-1.446910607143737e+18
-1.400236071429423e+18
-1.353561535715109e+18
-1.306887000000794e+18
-1.260212464286480e+18
-1.213537928572166e+18
-1.166863392857852e+18
-1.120188857143538e+18
-1.073514321429224e+18
-1.026839785714910e+18
-9.801652500005958e+17
-9.334907142862817e+17
-8.868161785719676e+17
-8.401416428576536e+17
-7.934671071433395e+17
-7.467925714290254e+17
-7.001180357147113e+17
-6.534435000003972e+17
-6.067689642860832e+17
-5.600944285717691e+17
-5.134198928574550e+17
-4.667453571431409e+17
-4.200708214288268e+17
-3.733962857145127e+17
-3.267217500001986e+17
-2.800472142858845e+17
-2.333726785715704e+17
-1.866981428572564e+17
-1.400236071429423e+17
-9.334907142862818e+16
-4.667453571431409e+16
0.000000000000000e+00
4.667453571431409e+16
9.334907142862818e+16
1.400236071429423e+17
1.866981428572564e+17
2.333726785715704e+17
2.800472142858845e+17
3.267217500001986e+17
3.733962857145127e+17
4.200708214288268e+17
4.667453571431409e+17
5.134198928574550e+17
5.600944285717691e+17
6.067689642860832e+17
6.534435000003972e+17
7.001180357147113e+17
7.467925714290254e+17
7.934671071433395e+17
8.401416428576536e+17
8.868161785719676e+17
9.334907142862817e+17
9.801652500005958e+17
1.026839785714910e+18
1.073514321429224e+18
1.120188857143538e+18
1.166863392857852e+18
1.213537928572166e+18
1.260212464286480e+18
1.306887000000794e+18
1.353561535715109e+18
1.400236071429423e+18
1.446910607143737e+18
1.493585142858051e+18
1.540259678572365e+18
1.586934214286679e+18
1.633608750000993e+18
1.680283285715307e+18
1.726957821429621e+18
1.773632357143935e+18
1.820306892858249e+18
1.866981428572563e+18
1.913655964286878e+18
1.960330500001192e+18
2.007005035715506e+18
2.053679571429820e+18
2.100354107144134e+18
2.147028642858448e+18
2.193703178572762e+18
2.240377714287076e+18
2.287052250001390e+18
2.333726785715704e+18
2.380401321430019e+18
2.427075857144333e+18
2.473750392858647e+18
2.520424928572961e+18
2.567099464287275e+18
2.613774000001589e+18
2.660448535715903e+18
2.707123071430217e+18
2.753797607144531e+18
2.800472142858845e+18
2.847146678573159e+18
2.893821214287474e+18
2.940495750001787e+18
2.987170285716102e+18
3.033844821430416e+18
3.080519357144730e+18
3.127193892859044e+18
3.173868428573358e+18
3.220542964287672e+18
3.267217500001986e+18
3.313892035716300e+18
3.360566571430615e+18
3.407241107144928e+18
3.453915642859242e+18
3.500590178573557e+18
3.547264714287870e+18
3.593939250002185e+18
3.640613785716499e+18
3.687288321430813e+18
3.733962857145127e+18
3.780637392859441e+18
3.827311928573755e+18
3.873986464288069e+18
3.920661000002383e+18
3.967335535716698e+18
4.014010071431011e+18
4.060684607145326e+18
4.107359142859640e+18
4.154033678573954e+18
4.200708214288268e+18
4.247382750002582e+18
4.294057285716896e+18
4.340731821431210e+18
4.387406357145524e+18
4.434080892859838e+18
4.480755428574153e+18
4.527429964288466e+18
4.574104500002781e+18
4.620779035717094e+18
4.667453571431409e+18
4.714128107145723e+18
4.760802642860037e+18
4.807477178574351e+18
4.854151714288666e+18
4.900826250002979e+18
4.947500785717293e+18
4.994175321431607e+18
5.040849857145922e+18
5.087524392860236e+18
5.134198928574550e+18
5.180873464288864e+18
5.227548000003177e+18
5.274222535717492e+18
5.320897071431806e+18
5.367571607146120e+18
5.414246142860434e+18
5.460920678574749e+18
5.507595214289062e+18
5.554269750003376e+18
5.600944285717690e+18
5.647618821432005e+18
5.694293357146319e+18
5.740967892860633e+18
5.787642428574947e+18
5.834316964289261e+18
5.880991500003575e+18
5.927666035717889e+18
5.974340571432203e+18
6.021015107146518e+18
6.067689642860832e+18
6.114364178575146e+18
6.161038714289459e+18
6.207713250003773e+18
6.254387785718088e+18
6.301062321432402e+18
6.347736857146716e+18
6.394411392861030e+18
6.441085928575345e+18
6.487760464289658e+18
6.534435000003972e+18
6.581109535718286e+18
6.627784071432601e+18
6.674458607146915e+18
6.721133142861229e+18
6.767807678575542e+18
6.814482214289857e+18
6.861156750004171e+18
6.907831285718485e+18
6.954505821432799e+18
7.001180357147113e+18
7.047854892861428e+18
7.094529428575741e+18
7.141203964290055e+18
7.187878500004369e+18
7.234553035718684e+18
7.281227571432998e+18
7.327902107147312e+18
7.374576642861626e+18
7.421251178575940e+18
7.467925714290254e+18
7.514600250004568e+18
7.561274785718882e+18
7.607949321433197e+18
7.654623857147511e+18
7.701298392861825e+18
7.747972928576138e+18
7.794647464290452e+18
7.841322000004767e+18
7.887996535719081e+18
7.934671071433395e+18
7.981345607147709e+18
8.028020142862023e+18
8.074694678576337e+18
8.121369214290651e+18
8.168043750004965e+18
8.214718285719280e+18
8.261392821433594e+18
8.308067357147908e+18
8.354741892862221e+18
8.401416428576536e+18
8.448090964290850e+18
8.494765500005164e+18
8.541440035719478e+18
8.588114571433793e+18
8.634789107148107e+18
8.681463642862420e+18
8.728138178576734e+18
8.774812714291048e+18
8.821487250005363e+18
8.868161785719677e+18
8.914836321433991e+18
8.961510857148305e+18
9.008185392862619e+18
9.054859928576933e+18
9.101534464291247e+18
9.148209000005561e+18
9.194883535719876e+18
9.241558071434189e+18
9.288232607148503e+18
9.334907142862817e+18
9.381581678577132e+18
9.428256214291446e+18
9.474930750005760e+18
9.521605285720074e+18
9.568279821434388e+18
9.614954357148703e+18
9.661628892863017e+18
9.708303428577331e+18
9.754977964291643e+18
9.801652500005958e+18
9.848327035720272e+18
9.895001571434586e+18
9.941676107148900e+18
9.988350642863215e+18
1.003502517857753e+19
1.008169971429184e+19
1.012837425000616e+19
1.017504878572047e+19
1.022172332143479e+19
1.026839785714910e+19
1.031507239286341e+19
1.036174692857773e+19
1.040842146429204e+19
1.045509600000635e+19
1.050177053572067e+19
1.054844507143498e+19
1.059511960714930e+19
1.064179414286361e+19
1.068846867857793e+19
1.073514321429224e+19
1.078181775000655e+19
1.082849228572087e+19
1.087516682143518e+19
1.092184135714950e+19
1.096851589286381e+19
1.101519042857812e+19
1.106186496429244e+19
1.110853950000675e+19
1.115521403572107e+19
1.120188857143538e+19
1.124856310714969e+19
1.129523764286401e+19
1.134191217857832e+19
1.138858671429264e+19
1.143526125000695e+19
1.148193578572127e+19
1.152861032143558e+19
1.157528485714989e+19
1.162195939286421e+19
1.166863392857852e+19
1.171530846429284e+19
1.176198300000715e+19
1.180865753572146e+19
1.185533207143578e+19
1.190200660715009e+19
1.194868114286441e+19
1.199535567857872e+19
1.204203021429304e+19
1.208870475000735e+19
1.213537928572166e+19
1.218205382143598e+19
1.222872835715029e+19
1.227540289286460e+19
1.232207742857892e+19
1.236875196429323e+19
1.241542650000755e+19
1.246210103572186e+19
1.250877557143618e+19
1.255545010715049e+19
1.260212464286480e+19
1.264879917857912e+19
1.269547371429343e+19
1.274214825000775e+19
1.278882278572206e+19
1.283549732143638e+19
1.288217185715069e+19
1.292884639286500e+19
1.297552092857932e+19
1.302219546429363e+19
1.306887000000794e+19
1.311554453572226e+19
1.316221907143657e+19
1.320889360715089e+19
1.325556814286520e+19
1.330224267857952e+19
1.334891721429383e+19
1.339559175000814e+19
1.344226628572246e+19
1.348894082143677e+19
1.353561535715108e+19
1.358228989286540e+19
1.362896442857971e+19
1.367563896429403e+19
1.372231350000834e+19
1.376898803572266e+19
1.381566257143697e+19
1.386233710715128e+19
1.390901164286560e+19
1.395568617857991e+19
1.400236071429423e+19
1.404903525000854e+19
1.409570978572286e+19
1.414238432143717e+19
1.418905885715148e+19
1.423573339286580e+19
1.428240792858011e+19
1.432908246429442e+19
1.437575700000874e+19
1.442243153572305e+19
1.446910607143737e+19
1.451578060715168e+19
1.456245514286600e+19
1.460912967858031e+19
1.465580421429462e+19
1.470247875000894e+19
1.474915328572325e+19
1.479582782143756e+19
1.484250235715188e+19
1.488917689286619e+19
1.493585142858051e+19
1.498252596429482e+19
1.502920050000914e+19
1.507587503572345e+19
1.512254957143776e+19
1.516922410715208e+19
1.521589864286639e+19
1.526257317858071e+19
1.530924771429502e+19
1.535592225000934e+19
1.540259678572365e+19
1.544927132143796e+19
1.549594585715228e+19
1.554262039286659e+19
1.558929492858090e+19
1.563596946429522e+19
1.568264400000953e+19
1.572931853572385e+19
1.577599307143816e+19
1.582266760715248e+19
1.586934214286679e+19
1.591601667858110e+19
1.596269121429542e+19
1.600936575000973e+19
1.605604028572405e+19
1.610271482143836e+19
1.614938935715267e+19
1.619606389286699e+19
1.624273842858130e+19
1.628941296429562e+19
1.633608750000993e+19
1.638276203572424e+19
1.642943657143856e+19
1.647611110715287e+19
1.652278564286719e+19
1.656946017858150e+19
1.661613471429582e+19
-3.080519357144730e+18
-3.033844821430416e+18
-2.987170285716102e+18
-2.940495750001787e+18
-2.893821214287474e+18
-2.847146678573159e+18
-2.800472142858845e+18
-2.753797607144531e+18
-2.707123071430217e+18
-2.660448535715903e+18
-2.613774000001589e+18
-2.567099464287275e+18
-2.520424928572961e+18
-2.473750392858647e+18
-2.427075857144333e+18
-2.380401321430019e+18
-2.333726785715704e+18
-2.287052250001390e+18
-2.240377714287076e+18
-2.193703178572762e+18
-2.147028642858448e+18
-2.100354107144134e+18
-2.053679571429820e+18
-2.007005035715506e+18
-1.960330500001192e+18
-1.913655964286878e+18
-1.866981428572563e+18
-1.820306892858249e+18
-1.773632357143935e+18
-1.726957821429621e+18
-1.680283285715307e+18
-1.633608750000993e+18
-1.586934214286679e+18
-1.540259678572365e+18
-1.493585142858051e+18
-1.446910607143737e+18
-1.400236071429423e+18
-1.353561535715109e+18
-1.306887000000794e+18
-1.260212464286480e+18
-1.213537928572166e+18
-1.166863392857852e+18
-1.120188857143538e+18
-1.073514321429224e+18
-1.026839785714910e+18
-9.801652500005958e+17
-9.334907142862817e+17
-8.868161785719676e+17
-8.401416428576536e+17
-7.934671071433395e+17
-7.467925714290254e+17
-7.001180357147113e+17
-6.534435000003972e+17
-6.067689642860832e+17
-5.600944285717691e+17
-5.134198928574550e+17
-4.667453571431409e+17
-4.200708214288268e+17
-3.733962857145127e+17
-3.267217500001986e+17
-2.800472142858845e+17
-2.333726785715704e+17
-1.866981428572564e+17
-1.400236071429423e+17
-9.334907142862818e+16
-4.667453571431409e+16
0.000000000000000e+00
4.667453571431409e+16
9.334907142862818e+16
1.400236071429423e+17
1.866981428572564e+17
2.333726785715704e+17
2.800472142858845e+17
3.267217500001986e+17
3.733962857145127e+17
4.200708214288268e+17
4.667453571431409e+17
5.134198928574550e+17
5.600944285717691e+17
6.067689642860832e+17
6.534435000003972e+17
7.001180357147113e+17
7.467925714290254e+17
7.934671071433395e+17
8.401416428576536e+17
8.868161785719676e+17
9.334907142862817e+17
9.801652500005958e+17
1.026839785714910e+18
1.073514321429224e+18
1.120188857143538e+18
1.166863392857852e+18
1.213537928572166e+18
1.260212464286480e+18
1.306887000000794e+18
1.353561535715109e+18
1.400236071429423e+18
1.446910607143737e+18
1.493585142858051e+18
1.540259678572365e+18
1.586934214286679e+18
1.633608750000993e+18
1.680283285715307e+18
1.726957821429621e+18
1.773632357143935e+18
1.820306892858249e+18
1.866981428572563e+18
1.913655964286878e+18
1.960330500001192e+18
2.007005035715506e+18
2.053679571429820e+18
2.100354107144134e+18
2.147028642858448e+18
2.193703178572762e+18
2.240377714287076e+18
2.287052250001390e+18
2.333726785715704e+18
2.380401321430019e+18
2.427075857144333e+18
2.473750392858647e+18
2.520424928572961e+18
2.567099464287275e+18
2.613774000001589e+18
2.660448535715903e+18
2.707123071430217e+18
2.753797607144531e+18
2.800472142858845e+18
2.847146678573159e+18
2.893821214287474e+18
2.940495750001787e+18
2.987170285716102e+18
3.033844821430416e+18
3.080519357144730e+18
