1               ; iformat
0               ; AMR grid style  (0 = regular grid, no AMR)
100             ; Coordinate system (spherical)
0               ; gridinfo
1 1 0           ; Include r, theta, phi coordinates
400 480 1          ; Size of grid
  7.523855202153712E+13
  1.504771040430742E+16
  1.531333623328555E+16
  1.558365095373783E+16
  1.585873733511233E+16
  1.613867960792346E+16
  1.642356348954308E+16
  1.671347621044685E+16
  1.700850654092392E+16
  1.730874481825810E+16
  1.761428297438878E+16
  1.792521456406026E+16
  1.824163479346780E+16
  1.856364054940952E+16
  1.889133042895275E+16
  1.922480476962413E+16
  1.956416568013263E+16
  1.990951707163489E+16
  2.026096468955245E+16
  2.061861614595065E+16
  2.098258095248906E+16
  2.135297055395362E+16
  2.172989836238060E+16
  2.211347979178301E+16
  2.250383229348998E+16
  2.290107539210994E+16
  2.330533072212868E+16
  2.371672206515339E+16
  2.413537538781414E+16
  2.456141888033452E+16
  2.499498299578296E+16
  2.543620049001706E+16
  2.588520646233300E+16
  2.634213839683240E+16
  2.680713620451962E+16
  2.728034226614191E+16
  2.776190147578597E+16
  2.825196128524401E+16
  2.875067174916300E+16
  2.925818557099089E+16
  2.977465814973387E+16
  3.030024762753904E+16
  3.083511493811698E+16
  3.137942385601910E+16
  3.193334104678488E+16
  3.249703611797427E+16
  3.307068167110095E+16
  3.365445335448232E+16
  3.424852991702243E+16
  3.485309326294428E+16
  3.546832850748829E+16
  3.609442403359392E+16
  3.673157154958193E+16
  3.737996614785477E+16
  3.803980636463326E+16
  3.871129424074766E+16
  3.939463538350193E+16
  4.009003902962994E+16
  4.079771810936306E+16
  4.151788931162871E+16
  4.225077315039973E+16
  4.299659403221502E+16
  4.375558032489206E+16
  4.452796442745236E+16
  4.531398284128127E+16
  4.611387624254386E+16
  4.692788955587915E+16
  4.775627202939526E+16
  4.859927731098826E+16
  4.945716352600830E+16
  5.033019335629678E+16
  5.121863412061855E+16
  5.212275785651409E+16
  5.304284140359640E+16
  5.397916648831842E+16
  5.493201981023664E+16
  5.590169312979762E+16
  5.688848335767392E+16
  5.789269264567728E+16
  5.891462847927639E+16
  5.995460377174790E+16
  6.101293695998940E+16
  6.208995210202377E+16
  6.318597897622458E+16
  6.430135318229314E+16
  6.543641624401798E+16
  6.659151571384824E+16
  6.776700527931313E+16
  6.896324487131974E+16
  7.018060077436278E+16
  7.141944573867952E+16
  7.268015909438475E+16
  7.396312686762032E+16
  7.526874189875502E+16
  7.659740396267102E+16
  7.794951989117352E+16
  7.932550369756130E+16
  8.072577670339616E+16
  8.215076766751018E+16
  8.360091291729018E+16
  8.507665648227974E+16
  8.657845023013947E+16
  8.810675400500739E+16
  8.966203576830160E+16
  9.124477174200853E+16
  9.285544655450046E+16
  9.449455338892710E+16
  9.616259413422656E+16
  9.786007953880206E+16
  9.958752936691138E+16
  1.013454725578168E+17
  1.031344473877447E+17
  1.049550016347037E+17
  1.068076927462124E+17
  1.086930880099884E+17
  1.106117647276491E+17
  1.125643103914801E+17
  1.145513228643231E+17
  1.165734105626394E+17
  1.186311926428052E+17
  1.207252991906950E+17
  1.228563714146116E+17
  1.250250618416223E+17
  1.272320345173601E+17
  1.294779652093525E+17
  1.317635416139389E+17
  1.340894635668413E+17
  1.364564432574512E+17
  1.388652054468997E+17
  1.413164876899771E+17
  1.438110405609695E+17
  1.463496278834820E+17
  1.489330269643191E+17
  1.515620288314931E+17
  1.542374384764347E+17
  1.569600751004780E+17
  1.597307723656978E+17
  1.625503786501734E+17
  1.654197573077598E+17
  1.683397869324432E+17
  1.713113616273636E+17
  1.743353912785864E+17
  1.774128018337061E+17
  1.805445355853685E+17
  1.837315514597972E+17
  1.869748253104140E+17
  1.902753502166418E+17
  1.936341367879816E+17
  1.970522134734585E+17
  2.005306268765287E+17
  2.040704420755462E+17
  2.076727429498860E+17
  2.113386325118246E+17
  2.150692332442780E+17
  2.188656874445029E+17
  2.227291575738637E+17
  2.266608266137744E+17
  2.306618984279234E+17
  2.347335981308926E+17
  2.388771724632833E+17
  2.430938901734637E+17
  2.473850424060559E+17
  2.517519430972791E+17
  2.561959293772733E+17
  2.607183619795235E+17
  2.653206256575117E+17
  2.700041296087239E+17
  2.747703079061415E+17
  2.796206199373493E+17
  2.845565508513955E+17
  2.895796120135389E+17
  2.946913414680240E+17
  2.998933044090248E+17
  3.051870936599021E+17
  3.105743301609203E+17
  3.160566634655741E+17
  3.216357722456761E+17
  3.273133648053602E+17
  3.330911796041588E+17
  3.389709857893130E+17
  3.449545837374796E+17
  3.510438056060001E+17
  3.572405158939012E+17
  3.635466120127983E+17
  3.699640248678760E+17
  3.764947194491249E+17
  3.831406954330150E+17
  3.899039877947896E+17
  3.967866674315682E+17
  4.037908417964475E+17
  4.109186555437970E+17
  4.181722911859444E+17
  4.255539697614540E+17
  4.330659515152005E+17
  4.407105365904487E+17
  4.484900657331495E+17
  4.564069210086684E+17
  4.644635265311656E+17
  4.726623492058515E+17
  4.810058994843453E+17
  4.894967321333656E+17
  4.981374470169928E+17
  5.069306898927369E+17
  5.158791532216605E+17
  5.249855769928022E+17
  5.342527495621487E+17
  5.436835085064243E+17
  5.532807414919430E+17
  5.630473871588056E+17
  5.729864360206982E+17
  5.831009313805806E+17
  5.933939702625320E+17
  6.038687043600522E+17
  6.145283410010967E+17
  6.253761441301526E+17
  6.364154353076436E+17
  6.476495947269850E+17
  6.590820622495825E+17
  6.707163384581111E+17
  6.825559857283766E+17
  6.946046293201076E+17
  7.068659584869940E+17
  7.193437276063268E+17
  7.320417573285724E+17
  7.449639357472472E+17
  7.581142195894336E+17
  7.714966354273213E+17
  7.851152809111252E+17
  7.989743260237770E+17
  8.130780143577545E+17
  8.274306644144599E+17
  8.420366709265265E+17
  8.569005062034746E+17
  8.720267215011131E+17
  8.874199484151232E+17
  9.030849002992325E+17
  9.190263737084329E+17
  9.352492498676643E+17
  9.517584961664342E+17
  9.685591676798099E+17
  9.856564087162717E+17
  1.003055454392876E+18
  1.020761632238236E+18
  1.038780363823788E+18
  1.057117166423865E+18
  1.075777654705056E+18
  1.094767542445412E+18
  1.114092644283972E+18
  1.133758877501196E+18
  1.153772263830810E+18
  1.174138931303644E+18
  1.194865116124010E+18
  1.215957164579211E+18
  1.237421534982750E+18
  1.259264799651845E+18
  1.281493646919848E+18
  1.304114883184194E+18
  1.327135434990490E+18
  1.350562351153409E+18
  1.374402804915004E+18
  1.398664096141137E+18
  1.423353653556668E+18
  1.448479037020109E+18
  1.474047939838425E+18
  1.500068191122700E+18
  1.526547758185382E+18
  1.553494748979851E+18
  1.580917414583038E+18
  1.608824151721891E+18
  1.637223505344407E+18
  1.666124171236083E+18
  1.695534998682522E+18
  1.725464993179064E+18
  1.755923319188230E+18
  1.786919302945858E+18
  1.818462435316755E+18
  1.850562374700778E+18
  1.883228949990192E+18
  1.916472163579256E+18
  1.950302194426906E+18
  1.984729401173536E+18
  2.019764325312763E+18
  2.055417694419208E+18
  2.091700425433231E+18
  2.128623628003674E+18
  2.166198607889586E+18
  2.204436870422020E+18
  2.243350124026911E+18
  2.282950283810174E+18
  2.323249475206051E+18
  2.364260037689893E+18
  2.405994528556454E+18
  2.448465726764901E+18
  2.491686636851679E+18
  2.535670492912465E+18
  2.580430762654394E+18
  2.625981151519835E+18
  2.672335606882938E+18
  2.719508322320289E+18
  2.767513741956916E+18
  2.816366564889051E+18
  2.866081749684923E+18
  2.916674518965041E+18
  2.968160364063287E+18
  3.020555049770334E+18
  3.073874619160745E+18
  3.128135398505335E+18
  3.183354002270193E+18
  3.239547338203998E+18
  3.296732612515097E+18
  3.354927335140002E+18
  3.414149325104855E+18
  3.474416715981576E+18
  3.535747961440279E+18
  3.598161840899738E+18
  3.661677465277573E+18
  3.726314282841957E+18
  3.792092085166593E+18
  3.859031013190849E+18
  3.927151563386822E+18
  3.996474594035310E+18
  4.067021331612527E+18
  4.138813377289594E+18
  4.211872713546729E+18
  4.286221710904224E+18
  4.361883134772206E+18
  4.438880152421345E+18
  4.517236340076574E+18
  4.596975690136068E+18
  4.678122618517620E+18
  4.760701972134724E+18
  4.844739036504601E+18
  4.930259543490559E+18
  5.017289679180975E+18
  5.105856091907417E+18
  5.195985900404240E+18
  5.287706702112285E+18
  5.381046581629084E+18
  5.476034119308304E+18
  5.572698400010926E+18
  5.671069022010954E+18
  5.771176106058277E+18
  5.873050304601578E+18
  5.976722811173969E+18
  6.082225369944380E+18
  6.189590285437488E+18
  6.298850432425277E+18
  6.410039265993156E+18
  6.523190831783815E+18
  6.638339776421868E+18
  6.755521358122550E+18
  6.874771457487635E+18
  6.996126588491992E+18
  7.119623909663995E+18
  7.245301235463385E+18
  7.373197047859884E+18
  7.503350508116287E+18
  7.635801468779463E+18
  7.770590485883112E+18
  7.907758831365849E+18
  8.047348505708558E+18
  8.189402250794774E+18
  8.333963562998126E+18
  8.481076706500750E+18
  8.630786726846871E+18
  8.783139464735538E+18
  8.938181570056963E+18
  9.095960516176480E+18
  9.256524614470803E+18
  9.419923029120737E+18
  9.586205792165151E+18
  9.755423818820542E+18
  9.927628923071183E+18
  1.010287383353431E+19
  1.028121220960552E+19
  1.046269865788902E+19
  1.064738874891806E+19
  1.083533903417036E+19
  1.102660706338408E+19
  1.122125140217923E+19
  1.141933164999040E+19
  1.162090845831577E+19
  1.182604354928851E+19
  1.203479973457580E+19
  1.224724093461162E+19
  1.246343219816888E+19
  1.268343972227724E+19
  1.290733087249232E+19
  1.313517420352290E+19
  1.336703948022201E+19
  1.360299769894882E+19
  1.384312110930741E+19
  1.408748323626939E+19
  1.433615890268694E+19
  1.458922425220339E+19
  1.484675677256808E+19
  1.510883531936289E+19
  1.537554014014751E+19
  1.564695289903102E+19
  1.592315670167710E+19
  1.620423612075077E+19
  0.000000000000000E+00
  1.392942279923736E-04
  1.471330670137437E-04
  1.554130398716597E-04
  1.641589715512008E-04
  1.733970840735229E-04
  1.831550751146287E-04
  1.934622010484409E-04
  2.043493646631580E-04
  2.158492078138840E-04
  2.279962092893216E-04
  2.408267881859538E-04
  2.543794130996484E-04
  2.686947174620655E-04
  2.838156213676674E-04
  2.997874602565918E-04
  3.166581208392074E-04
  3.344781846698784E-04
  3.533010798003991E-04
  3.731832409677895E-04
  3.941842787967212E-04
  4.163671585238810E-04
  4.397983887801175E-04
  4.645482209963819E-04
  4.906908600313165E-04
  5.183046866519987E-04
  5.474724925348752E-04
  5.782817284914731E-04
  6.108247666631088E-04
  6.451991774707142E-04
  6.815080221501238E-04
  7.198601617499045E-04
  7.603705835181626E-04
  8.031607456569020E-04
  8.483589414775701E-04
  8.961006840496079E-04
  9.465291124952514E-04
  9.997954211487363E-04
  1.056059312866611E-03
  1.115489477848274E-03
  1.178264099402325E-03
  1.244571388175125E-03
  1.314610146443286E-03
  1.388590364161948E-03
  1.466733848555911E-03
  1.549274889141269E-03
  1.636460960171394E-03
  1.728553462613367E-03
  1.825828507879420E-03
  1.928577745663192E-03
  2.037109238362792E-03
  2.151748384712389E-03
  2.272838895391534E-03
  2.400743823537289E-03
  2.535846653248853E-03
  2.678552449348217E-03
  2.829289071844069E-03
  2.988508458740141E-03
  3.156687981034127E-03
  3.334331873969699E-03
  3.521972748832821E-03
  3.720173189824996E-03
  3.929527440801223E-03
  4.150663186929798E-03
  4.384243436615747E-03
  4.630968509330254E-03
  4.891578135306011E-03
  5.166853673393759E-03
  5.457620453729597E-03
  5.764750252236867E-03
  6.089163904381604E-03
  6.431834066018157E-03
  6.793788129602481E-03
  7.176111304516558E-03
  7.579949870739271E-03
  8.006514615618963E-03
  8.457084464051740E-03
  8.933010312949524E-03
  9.435719081494365E-03
  9.966717989322440E-03
  1.052759907546457E-02
  1.112004397159201E-02
  1.174582894387844E-02
  1.240683021859496E-02
  1.310502960740497E-02
  1.384252044922478E-02
  1.462151388646497E-02
  1.544434549446959E-02
  1.631348228402989E-02
  1.723153009796720E-02
  1.820124142396167E-02
  1.922552364705092E-02
  2.030744776654156E-02
  2.145025760346830E-02
  2.265737952620666E-02
  2.393243272339833E-02
  2.527924005498974E-02
  2.670183951391697E-02
  2.820449633280192E-02
  2.979171577195746E-02
  3.146825662704281E-02
  3.323914549686775E-02
  3.510969185412322E-02
  3.708550396422340E-02
  3.917250569998697E-02
  4.137695430257168E-02
  4.370545914191222E-02
  4.616500153290977E-02
  4.876295566678528E-02
  5.150711072035338E-02
  5.440569420950445E-02
  5.746739665691349E-02
  6.070139764793396E-02
  6.411739335279823E-02
  6.772562559764020E-02
  7.153691257150212E-02
  7.556268126139025E-02
  7.981500171262652E-02
  8.430662321721555E-02
  8.905101253872601E-02
  9.406239428829359E-02
  9.935579357279911E-02
  1.049470810430904E-01
  1.108530204773110E-01
  1.170913190420000E-01
  1.236806803816557E-01
  1.306408606959356E-01
  1.379927279726239E-01
  1.457583245539578E-01
  1.539609332238996E-01
  1.626251470144964E-01
  1.717769429406212E-01
  1.814437598841656E-01
  1.916545808611985E-01
  2.024400199187404E-01
  2.138324139216912E-01
  2.258659195051020E-01
  2.385766154824771E-01
  2.520026110171439E-01
  2.661841598810100E-01
  2.811637811432789E-01
  2.969863866509717E-01
  3.136994156834655E-01
  3.313529771847733E-01
  3.500000000000000E-01
  3.627166284041135E-01
  3.754332568082270E-01
  3.881498852123405E-01
  4.008665136164540E-01
  4.135831420205675E-01
  4.262997704246810E-01
  4.390163988287945E-01
  4.517330272329080E-01
  4.644496556370215E-01
  4.771662840411350E-01
  4.898829124452485E-01
  5.025995408493620E-01
  5.153161692534756E-01
  5.280327976575890E-01
  5.407494260617025E-01
  5.534660544658161E-01
  5.661826828699296E-01
  5.788993112740430E-01
  5.916159396781566E-01
  6.043325680822701E-01
  6.170491964863836E-01
  6.297658248904972E-01
  6.424824532946105E-01
  6.551990816987241E-01
  6.679157101028377E-01
  6.806323385069510E-01
  6.933489669110646E-01
  7.060655953151781E-01
  7.187822237192916E-01
  7.314988521234052E-01
  7.442154805275186E-01
  7.569321089316321E-01
  7.696487373357457E-01
  7.823653657398592E-01
  7.950819941439726E-01
  8.077986225480862E-01
  8.205152509521997E-01
  8.332318793563132E-01
  8.459485077604267E-01
  8.586651361645402E-01
  8.713817645686537E-01
  8.840983929727672E-01
  8.968150213768806E-01
  9.095316497809942E-01
  9.222482781851077E-01
  9.349649065892212E-01
  9.476815349933347E-01
  9.603981633974482E-01
  9.731147918015617E-01
  9.858314202056753E-01
  9.985480486097887E-01
  1.011264677013902E+00
  1.023981305418016E+00
  1.036697933822129E+00
  1.049414562226243E+00
  1.062131190630356E+00
  1.074847819034470E+00
  1.087564447438583E+00
  1.100281075842697E+00
  1.112997704246810E+00
  1.125714332650924E+00
  1.138430961055037E+00
  1.151147589459151E+00
  1.163864217863264E+00
  1.176580846267378E+00
  1.189297474671491E+00
  1.202014103075605E+00
  1.214730731479718E+00
  1.227447359883832E+00
  1.240163988287945E+00
  1.252880616692059E+00
  1.265597245096172E+00
  1.278313873500286E+00
  1.291030501904399E+00
  1.303747130308513E+00
  1.316463758712626E+00
  1.329180387116740E+00
  1.341897015520853E+00
  1.354613643924967E+00
  1.367330272329081E+00
  1.380046900733194E+00
  1.392763529137307E+00
  1.405480157541421E+00
  1.418196785945534E+00
  1.430913414349648E+00
  1.443630042753761E+00
  1.456346671157875E+00
  1.469063299561988E+00
  1.481779927966102E+00
  1.494496556370216E+00
  1.507213184774329E+00
  1.519929813178442E+00
  1.532646441582556E+00
  1.545363069986669E+00
  1.558079698390783E+00
  1.570796326794897E+00
  1.583512955199010E+00
  1.596229583603124E+00
  1.608946212007237E+00
  1.621662840411351E+00
  1.634379468815464E+00
  1.647096097219578E+00
  1.659812725623691E+00
  1.672529354027805E+00
  1.685245982431918E+00
  1.697962610836032E+00
  1.710679239240145E+00
  1.723395867644259E+00
  1.736112496048372E+00
  1.748829124452486E+00
  1.761545752856599E+00
  1.774262381260713E+00
  1.786979009664826E+00
  1.799695638068940E+00
  1.812412266473053E+00
  1.825128894877167E+00
  1.837845523281280E+00
  1.850562151685394E+00
  1.863278780089507E+00
  1.875995408493621E+00
  1.888712036897734E+00
  1.901428665301848E+00
  1.914145293705961E+00
  1.926861922110075E+00
  1.939578550514188E+00
  1.952295178918302E+00
  1.965011807322415E+00
  1.977728435726529E+00
  1.990445064130642E+00
  2.003161692534756E+00
  2.015878320938869E+00
  2.028594949342983E+00
  2.041311577747096E+00
  2.054028206151210E+00
  2.066744834555323E+00
  2.079461462959437E+00
  2.092178091363550E+00
  2.104894719767664E+00
  2.117611348171777E+00
  2.130327976575891E+00
  2.143044604980004E+00
  2.155761233384118E+00
  2.168477861788231E+00
  2.181194490192345E+00
  2.193911118596458E+00
  2.206627747000572E+00
  2.219344375404686E+00
  2.232061003808799E+00
  2.244777632212912E+00
  2.257494260617026E+00
  2.270210889021139E+00
  2.282927517425253E+00
  2.295644145829367E+00
  2.308360774233480E+00
  2.321077402637593E+00
  2.333794031041707E+00
  2.346510659445820E+00
  2.359227287849934E+00
  2.371943916254048E+00
  2.384660544658161E+00
  2.397377173062274E+00
  2.410093801466388E+00
  2.422810429870502E+00
  2.435527058274615E+00
  2.448243686678729E+00
  2.460960315082842E+00
  2.473676943486955E+00
  2.486393571891069E+00
  2.499110200295183E+00
  2.511826828699296E+00
  2.524543457103410E+00
  2.537260085507523E+00
  2.549976713911636E+00
  2.562693342315750E+00
  2.575409970719864E+00
  2.588126599123977E+00
  2.600843227528091E+00
  2.613559855932204E+00
  2.626276484336318E+00
  2.638993112740431E+00
  2.651709741144545E+00
  2.664426369548658E+00
  2.677142997952771E+00
  2.689859626356885E+00
  2.702576254760999E+00
  2.715292883165112E+00
  2.728009511569226E+00
  2.740726139973339E+00
  2.753442768377452E+00
  2.766159396781566E+00
  2.778876025185680E+00
  2.791592653589793E+00
  2.810239676405020E+00
  2.827893237906328E+00
  2.844606266938821E+00
  2.860428872446514E+00
  2.875408493708783E+00
  2.889590042572649E+00
  2.903016038107316E+00
  2.915726734084691E+00
  2.927760239668102E+00
  2.939152633671053E+00
  2.949938072728595E+00
  2.960148893705628E+00
  2.969815710649172E+00
  2.978967506575297E+00
  2.987631720365894E+00
  2.995834329035835E+00
  3.003599925617169E+00
  3.010951792893858E+00
  3.017911973208137E+00
  3.024501334547793E+00
  3.030739633112482E+00
  3.036645572546703E+00
  3.042236860016994E+00
  3.047530259301499E+00
  3.052541641051067E+00
  3.057286030372578E+00
  3.061777651877167E+00
  3.066029972328403E+00
  3.070055741018291E+00
  3.073867027992153E+00
  3.077475260236995E+00
  3.080891255941859E+00
  3.084125256932880E+00
  3.087186959380289E+00
  3.090085542869440E+00
  3.092829697923008E+00
  3.095427652056884E+00
  3.097887194447881E+00
  3.100215699287221E+00
  3.102420147889806E+00
  3.104507149625570E+00
  3.106482961735670E+00
  3.108353508092925E+00
  3.110124396962750E+00
  3.111800937817836E+00
  3.113388157256991E+00
  3.114890814075876E+00
  3.116313413534803E+00
  3.117660220866395E+00
  3.118935274063587E+00
  3.120142395986325E+00
  3.121285205823252E+00
  3.122367129942742E+00
  3.123391412165831E+00
  3.124361123491826E+00
  3.125279171305763E+00
  3.126148308095324E+00
  3.126971139703328E+00
  3.127750133140568E+00
  3.128487623982388E+00
  3.129185823371198E+00
  3.129846824645915E+00
  3.130472609618201E+00
  3.131065054514329E+00
  3.131625935600471E+00
  3.132156934508299E+00
  3.132659643276844E+00
  3.133135569125741E+00
  3.133586138974174E+00
  3.134012703719054E+00
  3.134416542285277E+00
  3.134798865460191E+00
  3.135160819523775E+00
  3.135503489685412E+00
  3.135827903337556E+00
  3.136135033136064E+00
  3.136425799916399E+00
  3.136701075454487E+00
  3.136961685080463E+00
  3.137208410153177E+00
  3.137441990402863E+00
  3.137663126148992E+00
  3.137872480399968E+00
  3.138070680840960E+00
  3.138258321715823E+00
  3.138435965608759E+00
  3.138604145131053E+00
  3.138763364517949E+00
  3.138914101140445E+00
  3.139056806936544E+00
  3.139191909766256E+00
  3.139319814694402E+00
  3.139440905205081E+00
  3.139555544351430E+00
  3.139664075844130E+00
  3.139766825081914E+00
  3.139864100127180E+00
  3.139956192629622E+00
  3.140043378700652E+00
  3.140125919741237E+00
  3.140204063225631E+00
  3.140278043443350E+00
  3.140348082201618E+00
  3.140414389490391E+00
  3.140477164111945E+00
  3.140536594276926E+00
  3.140592858168644E+00
  3.140646124477298E+00
  3.140696552905744E+00
  3.140744294648316E+00
  3.140789492844136E+00
  3.140832283006275E+00
  3.140872793428043E+00
  3.140911145567643E+00
  3.140947454412323E+00
  3.140981828823130E+00
  3.141014371861302E+00
  3.141045181097258E+00
  3.141074348903141E+00
  3.141101962729762E+00
  3.141128105368797E+00
  3.141152855201013E+00
  3.141176286431269E+00
  3.141198469310996E+00
  3.141219470348825E+00
  3.141239352509993E+00
  3.141258175405123E+00
  3.141275995468954E+00
  3.141292866129537E+00
  3.141308837968425E+00
  3.141323958872331E+00
  3.141338274176694E+00
  3.141351826801607E+00
  3.141364657380504E+00
  3.141376804381979E+00
  3.141388304225130E+00
  3.141399191388745E+00
  3.141409498514678E+00
  3.141419256505720E+00
  3.141428494618242E+00
  3.141437240549922E+00
  3.141445520522780E+00
  3.141453359361801E+00
  3.141592653589793E+00
  0.000000000000000E+00
  6.283185307179586E+00
