 2
 160
 4.99900000E-02  1.0746000E+05  1.0746000E+05  2.1492000E+05
 5.49600000E-02  1.0746000E+05  1.0746000E+05  2.1492000E+05
 6.04130000E-02  1.0746000E+05  1.0746000E+05  2.1492000E+05
 6.64060000E-02  1.0746000E+05  1.0746000E+05  2.1492000E+05
 7.29930000E-02  1.0746000E+05  1.0746000E+05  2.1492000E+05
 8.02350000E-02  1.0746000E+05  1.0746000E+05  2.1492000E+05
 8.81940000E-02  1.0746000E+05  1.0746000E+05  2.1492000E+05
 9.69440000E-02  1.0746000E+05  1.0746000E+05  2.1492000E+05
 1.06560000E-01  1.0029187E+05  9.6926196E+04  1.9721807E+05
 1.17130000E-01  9.2306590E+04  7.8807766E+04  1.7111436E+05
 1.28750000E-01  8.4956115E+04  6.5985848E+04  1.5094196E+05
 1.41520000E-01  7.8192311E+04  5.5252206E+04  1.3344452E+05
 1.55560000E-01  7.1965623E+04  4.6262655E+04  1.1822828E+05
 1.71000000E-01  6.6232369E+04  3.8732682E+04  1.0496505E+05
 1.87960000E-01  6.0959416E+04  3.2432375E+04  9.3391790E+04
 2.06610000E-01  5.6104379E+04  2.7154938E+04  8.3259317E+04
 2.27100000E-01  5.1638113E+04  2.2738228E+04  7.4376341E+04
 2.49630000E-01  4.7526061E+04  1.9038750E+04  6.6564811E+04
 2.74400000E-01  4.3740780E+04  1.5940642E+04  5.9681423E+04
 3.01620000E-01  4.0257903E+04  1.3347330E+04  5.3605234E+04
 3.31540000E-01  3.7052369E+04  1.1175924E+04  4.8228293E+04
 3.64430000E-01  3.4101911E+04  9.3576756E+03  4.3459586E+04
 4.00590000E-01  3.1385902E+04  7.8349801E+03  3.9220882E+04
 4.40330000E-01  2.8886662E+04  6.5602815E+03  3.5446943E+04
 4.84010000E-01  2.6586548E+04  5.4930179E+03  3.2079566E+04
 5.32020000E-01  2.4469702E+04  4.5994312E+03  2.9069134E+04
 5.84800000E-01  2.2521139E+04  3.8511141E+03  2.6372253E+04
 6.42820000E-01  2.0727634E+04  3.2245101E+03  2.3952144E+04
 7.06590000E-01  1.9077107E+04  2.6999047E+03  2.1777012E+04
 7.76690000E-01  1.7557936E+04  2.2606283E+03  1.9818565E+04
 8.53740000E-01  1.6159817E+04  1.8928413E+03  1.8052658E+04
 9.38430000E-01  1.4873078E+04  1.5849019E+03  1.6457980E+04
 1.03150000E+00  1.3689044E+04  1.2092133E+03  1.4898257E+04
 1.13390000E+00  1.2598297E+04  8.2810363E+02  1.3426401E+04
 1.24630000E+00  1.1493111E+04  5.6740523E+02  1.2060516E+04
 1.37000000E+00  1.0419435E+04  3.8859879E+02  1.0808034E+04
 1.50590000E+00  9.2048911E+03  2.6619456E+02  9.4710856E+03
 1.65530000E+00  8.0921193E+03  1.8233786E+02  8.2744572E+03
 1.81950000E+00  7.0730771E+03  1.2490375E+02  7.1979809E+03
 2.00000000E+00  6.1224657E+03  8.5558611E+01  6.2080243E+03
 2.08220000E+00  5.7528156E+03  7.2827319E+01  5.8256429E+03
 2.16790000E+00  5.3988261E+03  6.1976509E+01  5.4608026E+03
 2.25700000E+00  5.0366199E+03  5.2754299E+01  5.0893742E+03
 2.34980000E+00  4.6985772E+03  4.4901463E+01  4.7434787E+03
 2.44640000E+00  4.3832712E+03  3.8218551E+01  4.4214898E+03
 2.54700000E+00  4.0843181E+03  3.2528820E+01  4.1168469E+03
 2.65180000E+00  3.7971817E+03  2.7683502E+01  3.8248652E+03
 2.76080000E+00  3.7513453E+03  2.3563744E+01  3.7749091E+03
 2.87440000E+00  5.2687085E+03  2.0053735E+01  5.2887623E+03
 2.99260000E+00  6.8548123E+03  1.7068266E+01  6.8718806E+03
 3.11560000E+00  5.3629667E+03  1.4528384E+01  5.3774950E+03
 3.24370000E+00  3.6027188E+03  1.2365776E+01  3.6150845E+03
 3.37710000E+00  2.8442014E+03  1.0524668E+01  2.8547261E+03
 3.51600000E+00  2.5488965E+03  8.9575372E+00  2.5578540E+03
 3.66060000E+00  2.3299183E+03  7.6238613E+00  2.3375422E+03
 3.81110000E+00  2.1991335E+03  6.4890738E+00  2.2056225E+03
 3.96780000E+00  2.0853179E+03  5.5231266E+00  2.0908410E+03
 4.13100000E+00  1.9861232E+03  4.7007084E+00  1.9908239E+03
 4.30080000E+00  1.8926278E+03  4.0011709E+00  1.8966290E+03
 4.47770000E+00  1.8138693E+03  3.4053685E+00  1.8172747E+03
 4.66180000E+00  1.7332879E+03  2.8984749E+00  1.7361864E+03
 4.85350000E+00  1.6153221E+03  2.4669705E+00  1.6177891E+03
 5.05310000E+00  1.5112739E+03  2.0996771E+00  1.5133736E+03
 5.26090000E+00  1.4358826E+03  1.7870796E+00  1.4376697E+03
 5.47720000E+00  1.3979439E+03  1.5210717E+00  1.3994649E+03
 5.70250000E+00  1.4418092E+03  1.2945622E+00  1.4431038E+03
 5.93690000E+00  1.4546750E+03  1.1019075E+00  1.4557769E+03
 6.18110000E+00  1.4191451E+03  9.3782328E-01  1.4200830E+03
 6.43530000E+00  1.3850351E+03  7.9819481E-01  1.3858333E+03
 6.69990000E+00  1.3523207E+03  6.7937695E-01  1.3530001E+03
 6.97540000E+00  1.2965321E+03  5.7823932E-01  1.2971103E+03
 7.26220000E+00  1.2270532E+03  4.9216561E-01  1.2275453E+03
 7.56080000E+00  1.1802467E+03  4.1890263E-01  1.1806656E+03
 7.87180000E+00  1.1438372E+03  3.5652327E-01  1.1441938E+03
 8.19550000E+00  1.1557399E+03  3.0344660E-01  1.1560434E+03
 8.53250000E+00  1.1818632E+03  2.5827294E-01  1.1821215E+03
 8.88330000E+00  1.5053062E+03  2.1982991E-01  1.5055260E+03
 9.24860000E+00  1.8395536E+03  1.8710272E-01  1.8397407E+03
 9.62890000E+00  2.3809406E+03  1.5924925E-01  2.3810998E+03
 1.00250000E+01  2.7672711E+03  1.3553347E-01  2.7674066E+03
 1.04370000E+01  2.7045967E+03  1.1536694E-01  2.7047120E+03
 1.08660000E+01  2.6759087E+03  9.8198598E-02  2.6760069E+03
 1.13130000E+01  2.7342057E+03  8.3574337E-02  2.7342892E+03
 1.17780000E+01  2.6082207E+03  7.1137384E-02  2.6082918E+03
 1.22630000E+01  2.2945384E+03  6.0533694E-02  2.2945989E+03
 1.27670000E+01  2.0334679E+03  5.1526264E-02  2.0335194E+03
 1.32920000E+01  1.8263558E+03  4.3855368E-02  1.8263997E+03
 1.38380000E+01  1.6529855E+03  3.7332819E-02  1.6530228E+03
 1.44080000E+01  1.5096441E+03  3.1766494E-02  1.5096758E+03
 1.50000000E+01  1.4414232E+03  2.7040770E-02  1.4414502E+03
 1.64600000E+01  1.5213881E+03  1.8649380E-02  1.5214067E+03
 1.80620000E+01  1.6791239E+03  1.2862351E-02  1.6791368E+03
 1.98210000E+01  1.4635348E+03  8.8691393E-03  1.4635436E+03
 2.17500000E+01  1.1547789E+03  6.1171155E-03  1.1547850E+03
 2.40000000E+01  9.1784159E+02  4.1260902E-03  9.1784572E+02
 2.61900000E+01  7.5193493E+02  2.9096568E-03  7.5193784E+02
 2.87400000E+01  6.1127950E+02  2.0064885E-03  6.1128150E+02
 3.15370000E+01  5.3496308E+02  1.3838920E-03  5.3496446E+02
 3.46070000E+01  4.8167491E+02  9.5439446E-04  4.8167586E+02
 3.79760000E+01  4.6335805E+02  6.5818328E-04  4.6335871E+02
 4.16720000E+01  4.5528689E+02  4.5394825E-04  4.5528734E+02
 4.57290000E+01  4.2278161E+02  3.1305230E-04  4.2278192E+02
 5.01800000E+01  3.5258590E+02  2.1590420E-04  3.5258612E+02
 5.50650000E+01  2.9110658E+02  1.4889535E-04  2.9110673E+02
 6.04250000E+01  2.4535717E+02  1.0268738E-04  2.4535727E+02
 6.63070000E+01  2.0375761E+02  7.0818416E-05  2.0375768E+02
 7.00000000E+01  1.8282545E+02  5.7015355E-05  1.8282551E+02
 7.98430000E+01  1.4052668E+02  3.3684963E-05  1.4052671E+02
 8.76150000E+01  1.1670129E+02  2.3231105E-05  1.1670132E+02
 1.00000000E+02  8.9584417E+01  1.3689370E-05  8.9584430E+01
 1.05500000E+02  8.0487386E+01  1.1050302E-05  8.0487397E+01
 1.15770000E+02  6.6840631E+01  7.6207829E-06  6.6840638E+01
 1.27040000E+02  5.5507496E+01  5.2555937E-06  5.5507501E+01
 1.39410000E+02  4.6094037E+01  3.6241654E-06  4.6094041E+01
 1.60000000E+02  3.4993911E+01  2.0888319E-06  3.4993913E+01
 1.67870000E+02  3.1789711E+01  1.7238190E-06  3.1789713E+01
 1.84210000E+02  2.6400138E+01  1.1888605E-06  2.6400139E+01
 2.02140000E+02  2.1924418E+01  8.1992604E-07  2.1924419E+01
 2.21820000E+02  1.8206699E+01  5.6543270E-07  1.8206699E+01
 2.50000000E+02  1.4333508E+01  3.5044793E-07  1.4333508E+01
 2.67100000E+02  1.2556972E+01  2.6896041E-07  1.2556972E+01
 2.93100000E+02  1.0427999E+01  1.8548998E-07  1.0427999E+01
 3.21630000E+02  8.6600321E+00  1.2792562E-07  8.6600323E+00
 3.50000000E+02  7.3130164E+00  9.1224523E-08  7.3130164E+00
 3.87300000E+02  5.9722445E+00  6.0840626E-08  5.9722446E+00
 4.25000000E+02  4.9596924E+00  4.1959278E-08  4.9596925E+00
 4.50000000E+02  4.4239244E+00  3.3383657E-08  4.4239245E+00
 5.00000000E+02  3.5833774E+00  2.1903001E-08  3.5833774E+00
 5.61580000E+02  2.8405946E+00  1.3763758E-08  2.8405946E+00
 6.16240000E+02  2.3590266E+00  9.4925782E-09  2.3590266E+00
 6.76230000E+02  1.9590420E+00  6.5464520E-09  1.9590420E+00
 7.42060000E+02  1.6268764E+00  4.5146869E-09  1.6268764E+00
 8.50000000E+02  1.2399227E+00  2.6224531E-09  1.2399227E+00
 8.93550000E+02  1.1220056E+00  2.1473784E-09  1.1220056E+00
 9.80530000E+02  9.3177453E-01  1.4809493E-09  9.3177453E-01
 1.10000000E+03  7.4036718E-01  9.3500262E-10  7.4036718E-01
 1.20000000E+03  6.2211423E-01  6.6017455E-10  6.2211423E-01
 1.30000000E+03  5.3008552E-01  4.7930328E-10  5.3008552E-01
 1.42180000E+03  4.4315494E-01  3.3498835E-10  4.4315494E-01
 1.56020000E+03  3.6802054E-01  2.3102694E-10  3.6802054E-01
 1.71200000E+03  3.0565048E-01  1.5935610E-10  3.0565048E-01
 1.87870000E+03  2.5381526E-01  1.0988894E-10  2.5381526E-01
 2.06150000E+03  2.1079773E-01  7.5796712E-11  2.1079773E-01
 2.26220000E+03  1.7505342E-01  5.2270870E-11  1.7505342E-01
 2.48240000E+03  1.4537478E-01  3.6049286E-11  1.4537478E-01
 2.72410000E+03  1.2072203E-01  2.4859451E-11  1.2072203E-01
 3.00000000E+03  9.9538269E-02  1.6900466E-11  9.9538269E-02
 3.28020000E+03  8.3259149E-02  1.1824491E-11  8.3259149E-02
 3.59950000E+03  6.9143005E-02  8.1548319E-12  6.9143005E-02
 3.94990000E+03  5.7419632E-02  5.6239224E-12  5.7419632E-02
 4.33440000E+03  4.7684214E-02  3.8785355E-12  4.7684214E-02
 4.75630000E+03  3.9599903E-02  2.6748952E-12  3.9599903E-02
 5.21930000E+03  3.2885775E-02  1.8447379E-12  3.2885775E-02
 5.72730000E+03  2.7310694E-02  1.2722838E-12  2.7310694E-02
 6.28480000E+03  2.2680346E-02  8.7744090E-13  2.2680346E-02
 6.89660000E+03  1.8834866E-02  6.0512288E-13  1.8834866E-02
 7.56790000E+03  1.5641624E-02  4.1733248E-13  1.5641624E-02
 8.30460000E+03  1.2989582E-02  2.8781197E-13  1.2989582E-02
 9.11290000E+03  1.0787465E-02  1.9849853E-13  1.0787465E-02
 1.00100000E+04  8.9753660E-03  1.3741143E-13  8.9753660E-03
