2        ; ISRF according to Black 
160
0.5000000000000E-01
0.5496000000000E-01
0.6041000000000E-01
0.6641000000000E-01
0.7299000000000E-01
0.8024000000000E-01
0.8819000000000E-01
0.9694000000000E-01
0.1066000000000E+00
0.1171000000000E+00
0.1287000000000E+00
0.1415000000000E+00
0.1556000000000E+00
0.1710000000000E+00
0.1880000000000E+00
0.2066000000000E+00
0.2271000000000E+00
0.2496000000000E+00
0.2744000000000E+00
0.3016000000000E+00
0.3315000000000E+00
0.3644000000000E+00
0.4006000000000E+00
0.4403000000000E+00
0.4840000000000E+00
0.5320000000000E+00
0.5848000000000E+00
0.6428000000000E+00
0.7066000000000E+00
0.7767000000000E+00
0.8537000000000E+00
0.9384000000000E+00
0.1032000000000E+01
0.1134000000000E+01
0.1246000000000E+01
0.1370000000000E+01
0.1506000000000E+01
0.1655000000000E+01
0.1819000000000E+01
0.2000000000000E+01
0.2082000000000E+01
0.2168000000000E+01
0.2257000000000E+01
0.2350000000000E+01
0.2446000000000E+01
0.2547000000000E+01
0.2652000000000E+01
0.2761000000000E+01
0.2874000000000E+01
0.2993000000000E+01
0.3116000000000E+01
0.3244000000000E+01
0.3377000000000E+01
0.3516000000000E+01
0.3661000000000E+01
0.3811000000000E+01
0.3968000000000E+01
0.4131000000000E+01
0.4301000000000E+01
0.4478000000000E+01
0.4662000000000E+01
0.4854000000000E+01
0.5053000000000E+01
0.5261000000000E+01
0.5477000000000E+01
0.5702000000000E+01
0.5937000000000E+01
0.6181000000000E+01
0.6435000000000E+01
0.6700000000000E+01
0.6975000000000E+01
0.7262000000000E+01
0.7561000000000E+01
0.7872000000000E+01
0.8195000000000E+01
0.8533000000000E+01
0.8883000000000E+01
0.9249000000000E+01
0.9629000000000E+01
0.1003000000000E+02
0.1044000000000E+02
0.1087000000000E+02
0.1131000000000E+02
0.1178000000000E+02
0.1226000000000E+02
0.1277000000000E+02
0.1329000000000E+02
0.1384000000000E+02
0.1441000000000E+02
0.1500000000000E+02
0.1646000000000E+02
0.1806000000000E+02
0.1982000000000E+02
0.2175000000000E+02
0.2400000000000E+02
0.2619000000000E+02
0.2874000000000E+02
0.3154000000000E+02
0.3461000000000E+02
0.3798000000000E+02
0.4167000000000E+02
0.4573000000000E+02
0.5018000000000E+02
0.5506000000000E+02
0.6042000000000E+02
0.6631000000000E+02
0.7000000000000E+02
0.7984000000000E+02
0.8761000000000E+02
0.1000000000000E+03
0.1055000000000E+03
0.1158000000000E+03
0.1270000000000E+03
0.1394000000000E+03
0.1600000000000E+03
0.1679000000000E+03
0.1842000000000E+03
0.2021000000000E+03
0.2218000000000E+03
0.2500000000000E+03
0.2671000000000E+03
0.2931000000000E+03
0.3216000000000E+03
0.3500000000000E+03
0.3873000000000E+03
0.4250000000000E+03
0.4500000000000E+03
0.5000000000000E+03
0.5616000000000E+03
0.6162000000000E+03
0.6762000000000E+03
0.7421000000000E+03
0.8500000000000E+03
0.8935000000000E+03
0.9805000000000E+03
0.1100000000000E+04
0.1200000000000E+04
0.1300000000000E+04
0.1422000000000E+04
0.1560000000000E+04
0.1712000000000E+04
0.1879000000000E+04
0.2062000000000E+04
0.2262000000000E+04
0.2482000000000E+04
0.2724000000000E+04
0.3000000000000E+04
0.3280000000000E+04
0.3600000000000E+04
0.3950000000000E+04
0.4334000000000E+04
0.4756000000000E+04
0.5219000000000E+04
0.5727000000000E+04
0.6285000000000E+04
0.6897000000000E+04
0.7568000000000E+04
0.8305000000000E+04
0.9113000000000E+04
0.1000000000000E+05
1.729E-21
2.622E-21
3.977E-21
6.030E-21
9.144E-21
1.387E-20
2.103E-20
3.189E-20
4.836E-20
7.333E-20
8.659E-20
9.628E-20
1.037E-19
1.058E-19
1.079E-19
1.117E-19
1.159E-19
1.389E-19
1.924E-19
2.659E-19
3.549E-19
4.736E-19
6.093E-19
7.671E-19
9.593E-19
1.168E-18
1.421E-18
1.690E-18
1.995E-18
2.310E-18
2.573E-18
2.867E-18
3.133E-18
3.417E-18
3.593E-18
3.622E-18
3.648E-18
3.530E-18
3.416E-18
3.247E-18
3.161E-18
3.077E-18
2.995E-18
2.916E-18
2.828E-18
2.737E-18
2.650E-18
2.565E-18
2.483E-18
2.403E-18
2.266E-18
2.133E-18
2.008E-18
1.890E-18
1.779E-18
1.681E-18
1.606E-18
1.535E-18
1.466E-18
1.401E-18
1.338E-18
1.331E-18
1.373E-18
1.415E-18
1.459E-18
1.504E-18
1.551E-18
1.664E-18
1.803E-18
1.952E-18
2.114E-18
2.290E-18
2.479E-18
2.680E-18
2.898E-18
3.133E-18
3.386E-18
3.661E-18
3.952E-18
4.257E-18
4.586E-18
4.940E-18
5.322E-18
5.733E-18
6.173E-18
6.646E-18
7.155E-18
7.702E-18
8.293E-18
8.927E-18
1.060E-17
1.258E-17
1.492E-17
1.770E-17
2.121E-17
2.489E-17
2.952E-17
3.501E-17
4.153E-17
4.926E-17
5.845E-17
6.935E-17
8.233E-17
9.779E-17
1.161E-16
1.374E-16
1.516E-16
1.928E-16
2.290E-16
2.823E-16
3.008E-16
3.358E-16
3.483E-16
3.487E-16
3.303E-16
3.166E-16
2.918E-16
2.570E-16
2.223E-16
1.800E-16
1.572E-16
1.299E-16
1.069E-16
8.937E-17
7.794E-17
8.450E-17
8.881E-17
1.201E-16
2.145E-16
3.374E-16
5.192E-16
7.989E-16
1.265E-15
1.487E-15
1.926E-15
2.423E-15
2.867E-15
3.112E-15
3.411E-15
3.648E-15
3.744E-15
3.842E-15
3.759E-15
3.662E-15
3.506E-15
3.284E-15
3.068E-15
2.802E-15
2.550E-15
2.295E-15
2.042E-15
1.817E-15
1.591E-15
1.394E-15
1.213E-15
1.051E-15
9.094E-16
7.801E-16
6.692E-16
5.716E-16
