   160
 5.00000000E-02
 5.49600000E-02
 6.04130000E-02
 6.64060000E-02
 7.29930000E-02
 8.02350000E-02
 8.81940000E-02
 9.69440000E-02
 1.06560000E-01
 1.17130000E-01
 1.28750000E-01
 1.41520000E-01
 1.55560000E-01
 1.71000000E-01
 1.87960000E-01
 2.06610000E-01
 2.27100000E-01
 2.49630000E-01
 2.74400000E-01
 3.01620000E-01
 3.31540000E-01
 3.64430000E-01
 4.00590000E-01
 4.40330000E-01
 4.84010000E-01
 5.32020000E-01
 5.84800000E-01
 6.42820000E-01
 7.06590000E-01
 7.76690000E-01
 8.53740000E-01
 9.38430000E-01
 1.03150000E+00
 1.13390000E+00
 1.24630000E+00
 1.37000000E+00
 1.50590000E+00
 1.65530000E+00
 1.81950000E+00
 2.00000000E+00
 2.08220000E+00
 2.16790000E+00
 2.25700000E+00
 2.34980000E+00
 2.44640000E+00
 2.54700000E+00
 2.65180000E+00
 2.76080000E+00
 2.87440000E+00
 2.99260000E+00
 3.11560000E+00
 3.24370000E+00
 3.37710000E+00
 3.51600000E+00
 3.66060000E+00
 3.81110000E+00
 3.96780000E+00
 4.13100000E+00
 4.30080000E+00
 4.47770000E+00
 4.66180000E+00
 4.85350000E+00
 5.05310000E+00
 5.26090000E+00
 5.47720000E+00
 5.70250000E+00
 5.93690000E+00
 6.18110000E+00
 6.43530000E+00
 6.69990000E+00
 6.97540000E+00
 7.26220000E+00
 7.56080000E+00
 7.87180000E+00
 8.19550000E+00
 8.53250000E+00
 8.88330000E+00
 9.24860000E+00
 9.62890000E+00
 1.00250000E+01
 1.04370000E+01
 1.08660000E+01
 1.13130000E+01
 1.17780000E+01
 1.22630000E+01
 1.27670000E+01
 1.32920000E+01
 1.38380000E+01
 1.44080000E+01
 1.50000000E+01
 1.64600000E+01
 1.80620000E+01
 1.98210000E+01
 2.17500000E+01
 2.40000000E+01
 2.61900000E+01
 2.87400000E+01
 3.15370000E+01
 3.46070000E+01
 3.79760000E+01
 4.16720000E+01
 4.57290000E+01
 5.01800000E+01
 5.50650000E+01
 6.04250000E+01
 6.63070000E+01
 7.00000000E+01
 7.98430000E+01
 8.76150000E+01
 1.00000000E+02
 1.05500000E+02
 1.15770000E+02
 1.27040000E+02
 1.39410000E+02
 1.60000000E+02
 1.67870000E+02
 1.84210000E+02
 2.02140000E+02
 2.21820000E+02
 2.50000000E+02
 2.67100000E+02
 2.93100000E+02
 3.21630000E+02
 3.50000000E+02
 3.87300000E+02
 4.25000000E+02
 4.50000000E+02
 5.00000000E+02
 5.61580000E+02
 6.16240000E+02
 6.76230000E+02
 7.42060000E+02
 8.50000000E+02
 8.93550000E+02
 9.80530000E+02
 1.10000000E+03
 1.20000000E+03
 1.30000000E+03
 1.42180000E+03
 1.56020000E+03
 1.71200000E+03
 1.87870000E+03
 2.06150000E+03
 2.26220000E+03
 2.48240000E+03
 2.72410000E+03
 3.00000000E+03
 3.28020000E+03
 3.59950000E+03
 3.94990000E+03
 4.33440000E+03
 4.75630000E+03
 5.21930000E+03
 5.72730000E+03
 6.28480000E+03
 6.89660000E+03
 7.56790000E+03
 8.30460000E+03
 9.11290000E+03
 1.00000000E+04
